# vtk DataFile Version 3.0
vtk output at time 1
ASCII
DATASET UNSTRUCTURED_GRID
POINTS 1111 float
77.8839 63.6337 45.8702 76.7734 63.759 46.9146 76.4961 65.017 46.4062 
77.5713 64.9304 45.3486 76.0206 63.9235 48.2029 75.6093 65.0025 47.6564 
75.6452 63.8107 49.6987 74.9595 65.0521 49.1283 75.5547 63.9722 51.2049 
74.5729 65.1463 50.8436 75.2758 63.9658 52.8335 74.5792 65.2273 52.7289 
75.4898 63.8857 54.4804 74.7236 65.1051 54.5471 76.1752 63.9015 55.919 
75.2657 65.0561 56.1947 77.0412 63.9893 57.0699 76.0066 65.0415 57.752 
77.6877 64.0777 58.4414 76.852 65.0964 59.1481 78.5379 64.1159 59.7098 
77.8478 65.205 60.4408 79.525 64.2091 60.8641 78.974 65.2948 61.5801 
80.7736 64.2175 61.7296 80.2737 65.3571 62.5313 82.1073 64.2364 62.4799 
81.7745 65.4672 63.2689 83.6534 64.3572 62.7147 83.3954 65.582 63.6903 
85.1721 64.4241 62.8511 85.0499 65.7035 63.8324 86.7006 64.4229 62.9049 
86.6731 65.8212 63.8188 88.2684 64.5829 63.0764 88.2729 65.9404 63.6385 
89.7748 64.6875 62.714 89.8291 66.0639 63.2001 91.27 64.7385 62.2616 
91.3265 66.1226 62.5606 92.6478 64.6484 61.6757 92.7699 66.0623 61.9272 
93.8831 64.7106 60.7758 94.0556 66.0755 60.9423 94.9785 64.6353 59.7179 
95.2386 66.0941 59.8059 95.8368 64.5647 58.4773 96.1908 66.1206 58.5316 
96.4268 64.537 57.0738 96.9307 66.1501 57.0065 96.7703 64.5213 55.5886 
97.2752 65.8666 55.4502 96.4966 64.0951 54.1452 97.1687 65.4959 53.9513 
96.1101 63.7803 52.7019 96.8137 65.1457 52.3566 95.5497 63.5397 51.3066 
96.2577 64.8577 50.8142 94.8392 63.3443 49.9669 95.556 64.6275 49.3515 
94.0598 63.177 48.6619 94.7232 64.4451 47.9803 93.1431 63.0957 47.4402 
93.7701 64.3006 46.7266 92.0121 62.9745 46.4316 92.6264 64.1947 45.646 
90.7447 62.9176 45.5905 91.3469 64.1213 44.6988 89.3837 62.9462 44.8989 
89.9147 64.1471 43.9682 87.945 62.9888 44.3812 88.4135 64.1926 43.3813 
86.4665 63.1259 44.0154 86.8367 64.3138 42.9995 84.9558 63.1931 43.8002 
85.1801 64.4662 42.8303 83.4337 63.2936 43.7531 83.474 64.5662 42.8252 
81.925 63.4296 43.9174 81.7851 64.6859 43.1202 80.4526 63.5044 44.2982 
80.1929 64.7429 43.6533 79.0664 63.5036 44.9087 78.7529 64.782 44.3517 
78.3946 88.9982 37.7394 79.948 88.9803 37.5528 79.7943 87.2523 36.909 
78.1512 87.2811 37.1358 81.4998 88.9571 37.4729 81.4665 87.2682 36.791 
83.0469 88.9184 37.7034 83.1338 87.244 36.8794 84.5985 88.8875 37.8992 
84.7659 87.2523 37.0451 86.1542 88.8634 38.0645 86.3764 87.2964 37.2819 
87.6592 88.8895 38.4873 87.9574 87.3394 37.7238 89.1309 88.9534 39.002 
89.5083 87.4247 38.2843 90.5536 89.0734 39.6421 90.9997 87.5359 38.988 
91.848 89.2004 40.5059 92.3793 87.6363 39.9084 92.9939 89.3144 41.5394 
93.6606 87.7549 40.9321 93.9408 89.4067 42.7815 94.7693 87.8025 42.0877 
94.9115 89.5387 44.0015 95.8718 87.9838 43.2651 95.8829 89.6707 45.2209 
96.8857 88.1407 44.5255 96.8276 89.7926 46.4572 97.7968 88.2797 45.9127 
97.4338 89.8197 47.8993 98.4577 88.2405 47.4725 97.9775 89.8442 49.3654 
99.0237 88.2628 49.1206 98.4358 89.8804 50.8563 99.4308 88.4115 50.7744 
98.6402 89.9837 52.4041 99.6217 88.5943 52.4108 98.5015 90.0365 53.9427 
99.5174 88.69 54.0478 98.1439 90.0629 55.4603 99.1495 88.7163 55.6218 
97.4974 90.079 56.8851 98.5203 88.6718 57.1448 96.7051 90.0875 58.2286 
97.7807 88.6517 58.629 95.8219 90.0963 59.5196 96.967 88.5664 60.1162 
94.8675 90.132 60.759 96.0352 88.2253 62.0279 94.1018 90.006 62.4021 
94.5629 88.7412 63.1149 93.0169 90.0345 63.4979 93.3976 88.7967 64.1857 
91.4326 90.1262 63.8865 92.046 88.7268 65.0389 90.0234 90.1031 64.5279 
90.6199 88.6695 65.6912 88.5092 90.1061 64.922 89.1057 88.6536 66.2538 
87.0045 90.0971 65.3503 87.4825 88.594 66.7468 85.4666 89.7294 66.2053 
85.7822 88.5019 67.1105 83.9426 89.6844 66.3403 84.0121 88.4997 67.3316 
82.3813 90.0875 66.01 82.1869 88.5425 67.3275 80.8173 90.1313 65.9959 
80.5779 88.8225 67.0773 79.4736 90.0943 65.2592 79.173 88.7589 66.3309 
78.1865 90.0499 64.3736 77.7173 88.7224 65.4157 76.9949 90.0378 63.3596 
76.3367 88.6461 64.3896 75.7893 89.9838 62.3647 75.0281 88.522 63.3146 
74.5725 89.8963 61.385 73.7676 88.3547 62.2055 73.3985 89.8067 60.3545 
72.5606 88.2029 61.0717 72.3441 89.6736 59.2243 71.5286 88.0299 59.8639 
71.4779 89.4719 57.937 70.6399 87.859 58.5299 70.7971 89.2324 56.555 
69.9172 87.6794 57.0728 70.1923 88.9996 55.1339 69.2704 87.5721 55.5742 
69.6567 89.1609 53.6727 68.6981 87.5809 54.0131 69.1656 89.2547 52.1951 
68.1967 87.6227 52.3974 68.7717 89.2013 50.6817 67.8834 87.6135 50.8028 
68.7499 89.1608 49.1548 67.9121 87.5496 49.1856 69.035 89.131 47.6166 
68.1913 87.5188 47.5837 69.5497 89.0758 46.1451 68.7339 87.4637 46.006 
70.1407 89.0147 44.7012 69.3826 87.4672 44.4471 71.155 88.9677 43.5108 
70.373 87.3782 43.0996 72.1711 88.9347 42.3216 71.4296 87.3354 41.7865 
73.1924 88.9406 41.1362 72.5754 87.3026 40.5705 74.3485 88.955 40.1021 
73.8391 87.2612 39.4736 75.6418 88.978 39.2218 75.1538 87.2501 38.4952 
77.005 88.9901 38.4584 76.6248 87.2258 37.7593 75.1278 66.1603 46.9549 
76.1501 66.2288 45.8243 74.249 66.2214 48.4092 73.5008 66.5877 50.4147 
73.5643 66.3592 52.818 73.8208 66.2458 54.7636 74.3774 66.2247 56.5511 
75.1395 66.2492 58.2079 76.0789 66.3018 59.7393 77.16 66.3926 61.1209 
78.4002 66.5313 62.2916 79.7873 66.6664 63.2779 81.4035 66.84 64.0619 
83.1669 67.0044 64.5703 84.9614 67.0972 64.7321 86.7271 67.1764 64.6701 
88.4235 67.2266 64.4477 90.0247 67.2926 63.9893 91.5712 67.3332 63.3466 
93.0594 67.3457 62.5587 94.4609 67.3822 61.5387 95.7374 67.4217 60.3581 
96.9148 67.5033 59.0162 97.9771 67.8473 57.1548 98.0269 67.3096 55.2078 
97.8431 66.8832 53.5464 97.4685 66.5318 51.9118 96.9017 66.2458 50.3113 
96.1733 66.0198 48.7989 95.295 65.8359 47.3903 94.3239 65.6662 46.1005 
93.1526 65.5635 44.9873 91.8279 65.4946 43.9964 90.3686 65.4875 43.1879 
88.8129 65.5379 42.5541 87.1488 65.6929 42.1408 85.4042 65.9145 41.9827 
83.5148 66.1016 41.9918 81.6544 66.1307 42.522 79.9123 66.1005 43.2072 
78.431 66.0577 43.8803 77.1781 66.1259 44.7811 81.3942 85.5786 36.184 
79.6374 85.5626 36.3186 83.1345 85.5652 36.2432 84.8467 85.5539 36.4721 
86.5157 85.5763 36.8295 88.1773 85.6451 37.2758 89.8268 85.7408 37.8636 
91.405 85.8554 38.6112 92.8506 85.9631 39.5664 94.2564 86.1085 40.5648 
95.58 86.3011 41.5667 96.7776 86.5042 42.7179 97.8976 86.7493 43.9691 
98.8324 86.8859 45.4164 99.5587 86.8748 47.0672 100.174 86.8496 48.9001 
100.538 87.0856 50.7425 100.635 87.2626 52.4629 100.468 87.3449 54.172 
100.076 87.3524 55.7744 99.4849 87.3383 57.3215 98.8117 87.3232 58.7964 
98.0295 87.0545 60.1947 97.2613 86.4747 61.7636 93.8797 87.5195 64.8209 
94.6994 87.7209 63.8852 92.5993 87.3198 65.7855 91.1421 87.2545 66.6901 
89.5704 87.2818 67.3756 87.8984 87.348 67.9436 86.1672 87.3903 68.3198 
84.3229 87.3683 68.6154 82.113 87.1413 68.8966 80.1131 87.5204 68.1758 
78.6028 87.518 67.3438 77.1228 87.447 66.4434 75.6988 87.2715 65.3833 
74.3263 87.1147 64.2622 73.0679 86.8648 63.0297 71.873 86.6639 61.8111 
70.8819 86.4565 60.5206 70.0006 86.2895 59.1355 69.2684 86.1376 57.571 
68.6376 86.0264 55.9028 67.9974 86.0081 54.2259 67.505 86.0004 52.5129 
67.1086 86.0433 50.8989 67.0979 86.008 49.1565 67.4159 85.9567 47.5093 
68.0232 85.8849 45.8743 68.7634 85.8492 44.2669 69.7432 85.7822 42.8151 
70.8014 85.7477 41.4084 71.9634 85.7064 40.1171 73.3056 85.6147 38.983 
74.6933 85.5336 37.9768 76.2593 85.4676 37.2087 77.9131 85.544 36.5797 
95.6277 86.8659 63.6196 96.654 85.5682 63.3114 72.6808 67.5475 53.2687 
72.4745 67.8228 51.4168 73.0172 67.4507 55.128 73.5864 67.4467 56.9262 
74.4314 67.5268 58.5871 75.4712 67.6418 60.1291 76.6121 67.7551 61.5546 
77.8839 67.9011 62.7982 79.3021 68.0728 63.8798 80.9585 68.2881 64.7386 
82.9204 68.5166 65.4183 84.9703 68.5063 65.6175 86.8179 68.5206 65.5302 
88.5878 68.5175 65.2784 90.2497 68.5049 64.8323 91.8644 68.4957 64.1923 
93.442 68.4687 63.4012 94.9348 68.4805 62.3987 96.2879 68.5543 61.1973 
97.4957 68.7339 59.9657 98.4818 69.3413 58.541 98.4587 68.2693 52.9435 
98.7248 68.7243 54.5179 98.0362 67.9131 51.3149 97.4336 67.6396 49.7364 
96.6622 67.4329 48.2518 95.7687 67.2442 46.8444 94.7685 67.0724 45.545 
93.6171 66.9398 44.3825 92.292 66.8502 43.3635 90.8248 66.8241 42.5113 
89.2471 66.8728 41.8318 87.6015 67.0227 41.328 85.7828 67.3 40.9851 
83.4979 67.7286 40.6463 81.2202 67.4013 41.4553 79.3497 67.0859 42.188 
77.8432 66.9813 43.0284 76.6411 67.0108 43.9815 75.6837 67.2222 45.0617 
74.6521 67.2648 46.2071 98.9723 69.367 56.0648 99.2975 70.3282 57.3549 
94.6838 86.2026 65.0069 95.6837 84.6501 64.8169 93.3219 85.7719 66.383 
91.6552 85.7837 67.5307 89.9914 85.8667 68.3329 88.3069 86.0479 68.9677 
86.6257 86.1788 69.3889 84.9447 86.1952 69.7316 83.3464 85.9027 70.1522 
77.8981 86.2964 68.2885 79.3307 86.2598 69.097 76.4151 86.2198 67.3935 
74.9569 86.0868 66.3819 73.6734 85.7628 65.1456 72.446 85.4403 63.817 
71.3326 85.1654 62.4917 70.4002 84.9376 61.1397 69.5426 84.7406 59.6944 
68.9087 84.5172 57.9755 68.2915 84.4033 56.1644 67.6695 84.3743 54.3577 
67.1316 84.3654 52.5936 66.6018 84.3676 50.9766 66.6158 84.3249 49.1592 
66.9315 84.3103 47.4907 67.569 84.2571 45.8167 68.3168 84.2228 44.1615 
69.2451 84.1832 42.6283 70.3211 84.1462 41.1995 71.4998 84.0938 39.8585 
72.8746 83.9608 38.6662 74.2696 83.8258 37.5948 75.9577 83.6696 36.7262 
77.7954 83.8195 36.0497 79.5799 83.8951 35.7881 81.4007 83.9223 35.6797 
83.1834 83.9076 35.7752 84.9371 83.8974 36.0021 86.6658 83.9108 36.3684 
88.4083 83.9753 36.8155 90.1518 84.0646 37.4075 91.816 84.1738 38.2045 
93.4021 84.3314 39.0895 94.8926 84.5207 40.0899 96.2847 84.7689 41.1132 
97.5362 85.0222 42.2564 98.722 85.3175 43.4767 99.6798 85.4802 44.9165 
100.506 85.4466 46.6283 101.303 85.0894 48.7198 101.501 85.6428 50.8697 
101.389 85.8268 52.6795 101.216 85.9274 54.3829 100.847 85.9756 55.9811 
100.238 85.9821 57.4994 99.6302 86.0281 58.9118 98.8685 85.8002 60.0917 
98.2933 85.149 61.3333 97.6802 84.2406 62.6281 96.7905 83.1888 63.9743 
94.0749 83.572 66.6305 95.7065 81.9592 65.3076 80.8126 85.8916 69.8957 
82.0541 85.0266 70.6063 99.7147 70.612 55.0906 100.044 71.3685 56.3427 
99.4877 70.0112 53.6506 99.1002 69.5989 52.1667 98.6112 69.2461 50.6277 
97.9861 68.9753 49.1003 97.197 68.7736 47.6526 96.2417 68.6214 46.2975 
95.2038 68.4599 45.017 94.0472 68.3173 43.8535 92.7218 68.2211 42.8352 
91.3112 68.1376 41.9001 89.763 68.1623 41.1752 88.1312 68.2907 40.5646 
86.5199 68.5105 39.9826 84.8638 68.8831 39.2876 78.5658 67.7206 41.0607 
80.2764 68.1871 40.1957 77.0705 67.4092 41.9502 75.8824 67.5703 42.9719 
74.9092 67.9038 44.1117 73.9386 68.1058 45.2794 72.0429 68.8227 53.6879 
71.7874 68.9862 52.0242 72.4264 68.7782 55.4441 73.0181 68.8087 57.2012 
73.8842 68.9155 58.8334 74.9787 69.0596 60.3348 76.1912 69.202 61.7242 
77.4571 69.3505 63.009 78.7759 69.5301 64.166 80.4096 69.8236 65.2383 
82.6489 70.311 66.352 85.1272 69.963 66.4847 87.0667 69.8682 66.3572 
88.8133 69.8118 66.1114 90.4916 69.7352 65.6656 92.1607 69.6737 65.0286 
93.7934 69.625 64.2243 95.3462 69.6183 63.2477 96.6861 69.7174 62.0711 
97.8607 69.9735 60.7971 98.8523 70.5515 59.5097 99.5674 71.3622 58.3464 
100.307 72.2518 57.3666 100.906 72.2233 55.4226 101.093 73.0735 56.4124 
100.665 71.6226 54.1656 72.1614 68.372 49.9258 71.5758 69.2781 50.6256 
71.7051 69.0113 48.9189 71.3329 69.4565 49.7042 82.0301 68.6401 39.257 
83.4725 69.5289 38.3445 91.9034 83.9693 68.1925 90.1278 84.2952 69.0943 
88.5249 84.6081 69.7824 86.9589 84.8825 70.2158 85.4054 84.9762 70.5223 
84.0939 84.7681 70.7245 83.0589 84.05 71.1284 81.0536 83.96 70.9737 
82.1292 83.0643 71.3472 79.8515 84.7258 70.5214 78.5635 85.0324 69.8354 
77.1777 85.0906 69.1307 75.7769 84.9306 68.2201 74.3497 84.7374 67.1999 
73.1208 84.3798 65.9438 71.9448 84.0241 64.566 70.8773 83.7374 63.206 
70.056 83.4257 61.7406 69.2646 83.1275 60.1579 68.6279 82.8416 58.3394 
68.0888 82.7318 56.3901 67.5007 82.7135 54.4728 67.0002 82.7129 52.6284 
66.4867 82.7177 50.9786 66.4928 82.6915 49.165 66.6928 82.6592 47.4519 
67.2977 82.6179 45.7651 68.0061 82.5909 44.094 68.8747 82.5761 42.5211 
69.8718 82.5621 41.0387 71.0178 82.5057 39.6668 72.3443 82.3445 38.4577 
73.7711 82.1028 37.2882 75.6749 81.5373 36.062 77.8548 82.0871 35.5372 
79.7186 82.2876 35.241 81.5103 82.339 35.2034 83.2769 82.3086 35.352 
85.0413 82.2853 35.6013 86.8233 82.3009 35.9229 88.6341 82.3394 36.3746 
90.4538 82.3979 36.9851 92.2027 82.4898 37.7887 93.8964 82.6875 38.6393 
95.4696 82.9303 39.6083 96.9119 83.2241 40.6421 98.212 83.5242 41.8021 
99.4064 83.8563 42.9654 100.297 84.0091 44.4889 101.126 84.0305 46.0222 
101.71 83.6491 47.452 102.045 84.3993 52.9968 102.265 84.1862 51.409 
101.771 84.443 54.6527 101.381 84.4692 56.2522 100.75 84.5737 57.8056 
100.092 84.7708 59.1228 99.4268 84.9135 59.9945 99.1755 84.1147 60.6935 
98.6621 83.0734 61.6865 97.8811 81.9186 62.8819 96.9157 80.6902 64.0179 
94.6798 80.377 66.3162 95.8864 79.3431 64.9936 93.2593 81.3836 67.6399 
91.5841 82.0441 68.9009 89.9718 82.5298 69.7299 88.3993 82.9964 70.3267 
86.9201 83.4369 70.7706 85.5533 83.7557 71.0264 99.0032 80.7811 61.6871 
99.8252 82.087 60.5764 98.057 79.5377 62.7952 97.0269 78.2387 63.7549 
94.8336 77.9068 65.6561 95.8808 76.877 64.4127 93.6864 78.7699 66.9871 
92.4126 79.5194 68.2888 90.9568 80.1805 69.4088 89.5562 80.7713 70.354 
87.9911 81.4009 70.8009 86.5881 81.994 71.2139 85.1773 82.5691 71.3457 
102.262 83.5698 49.7896 102.306 82.6401 48.4128 100.393 71.0806 52.7884 
99.9497 70.7198 51.342 99.4002 70.4067 49.8664 98.7029 70.1818 48.4004 
97.8372 70.0367 46.9974 96.8459 69.9086 45.6701 95.7194 69.7985 44.4444 
94.5236 69.6697 43.2851 93.2258 69.5365 42.2271 91.8416 69.4216 41.2892 
90.3479 69.4 40.5028 88.7953 69.469 39.8116 87.293 69.6826 39.1635 
85.8552 69.999 38.4531 84.6709 70.5447 37.6221 82.3494 70.2561 37.3959 
83.6408 71.2995 36.7857 80.9054 69.3278 38.1062 79.3555 68.642 38.9203 
77.7463 68.3257 39.9016 76.2279 68.0858 40.8854 75.0826 68.3227 41.9723 
73.9975 68.6263 43.1489 72.9987 68.9005 44.3963 73.0117 68.2144 46.4957 
72.0944 69.0946 45.6477 72.308 68.5675 47.795 71.398 69.3883 47.0601 
70.944 69.7783 48.3383 70.6897 70.1045 49.5761 70.8442 70.21 50.8537 
71.1191 70.1831 52.3451 71.41 70.1388 53.9673 71.8523 70.1564 55.6726 
72.4849 70.229 57.3744 73.3509 70.3513 58.9991 74.467 70.4995 60.4617 
75.6828 70.6259 61.8356 76.8835 70.752 63.147 78.1045 70.9044 64.4371 
79.4668 71.2135 65.5964 80.9685 71.6742 66.7881 87.3645 71.2181 67.0873 
85.6843 71.3332 67.2808 89.0406 71.1664 66.821 90.7054 71.1038 66.3486 
92.3972 70.9734 65.7153 94.0593 70.8999 64.8896 95.6281 70.9088 63.9177 
96.8935 70.99 62.7196 98.0007 71.2274 61.4796 98.897 71.7954 60.2809 
99.5957 72.5567 59.1088 100.436 73.3434 58.1508 101.232 74.1223 57.1902 
101.888 73.731 55.549 101.992 74.756 56.1349 101.718 73.1276 54.5603 
101.581 72.5901 53.352 83.8896 71.7472 67.4912 82.2563 72.5018 67.8857 
83.2661 82.1429 71.6138 84.0039 83.1668 71.34 81.2144 81.995 71.5038 
82.3447 81.0033 71.6586 80.1903 82.9023 71.2048 79.2268 83.5431 70.7081 
78.0604 83.7294 70.2627 76.6347 83.7728 69.7907 75.3364 83.5632 68.9242 
73.94 83.3116 67.9184 72.7487 82.9522 66.654 71.5956 82.6173 65.2824 
70.5949 82.283 63.869 69.7366 81.9195 62.3416 69.0504 81.4891 60.6735 
68.5398 81.0822 58.6663 68.0209 81.0433 56.5071 67.4505 81.0631 54.5327 
66.9381 81.0732 52.6655 66.421 81.0648 50.9899 66.52 81.0354 49.1581 
66.628 81.0045 47.3742 67.1862 80.9689 45.724 67.7502 80.9706 44.018 
68.5536 80.9651 42.447 69.4548 80.975 40.937 70.5063 80.9482 39.5525 
71.7088 80.8178 38.2675 72.9131 80.5324 37.0977 74.3034 79.8349 36.0664 
79.97 80.7802 34.8331 78.3428 80.4606 34.9523 81.6734 80.7986 34.8959 
83.3852 80.743 35.0417 85.1281 80.6942 35.2818 86.925 80.6775 35.6374 
88.7893 80.6918 36.0908 90.6891 80.738 36.668 92.5464 80.8468 37.406 
94.327 81.0663 38.2499 95.994 81.3447 39.1979 97.4387 81.6435 40.3028 
98.7506 81.9498 41.5311 99.9248 82.2734 42.753 100.814 82.5224 44.2677 
101.536 82.7186 45.6695 101.845 82.744 46.7664 102.228 81.8457 47.2099 
102.813 81.4252 49.2363 102.602 80.5874 47.8541 102.825 82.2708 50.5517 
102.741 82.8854 51.8722 102.544 82.993 53.2702 102.248 82.9966 54.8368 
101.716 82.951 56.487 100.978 83.0417 58.2281 100.141 83.514 59.736 
76.7462 79.8512 35.0475 75.4751 78.7596 35.2947 84.5228 81.3296 71.564 
83.6331 80.1044 71.6989 81.2604 79.9092 71.6502 82.5611 78.9366 71.6114 
80.1752 81.0191 71.5565 79.3179 82.0013 71.2395 78.7677 82.7238 70.9453 
77.8322 82.5892 70.7441 76.5038 82.3772 70.3021 75.2721 82.057 69.4277 
73.9411 81.715 68.4235 72.7426 81.3868 67.1926 71.5806 81.0994 65.8369 
70.6847 80.7456 64.374 69.8189 80.3015 62.9014 69.1272 79.7476 61.2249 
68.566 78.9443 58.9732 67.9829 79.3341 56.4952 67.5415 79.4528 54.4256 
66.9925 79.4647 52.5907 66.4728 79.4148 50.9213 66.4846 79.3729 49.1044 
66.5974 79.349 47.3303 67.0566 79.3174 45.671 67.5861 79.3151 43.9811 
68.2681 79.3331 42.3869 69.0836 79.3823 40.8736 70.0019 79.4003 39.4764 
71.0687 79.3151 38.1845 72.1439 79.0191 37.0285 73.4006 78.3687 36.1074 
74.526 77.5621 35.4943 76.4453 77.6172 34.7762 75.5102 76.5967 35.1021 
77.5518 78.4989 34.7334 78.8686 79.0532 34.6794 80.3062 79.2935 34.5874 
81.8239 79.3011 34.7346 83.439 79.178 34.8824 85.1369 79.0788 35.1486 
86.9275 79.0504 35.5086 88.7992 79.0651 35.9534 90.6914 79.06 36.5529 
92.688 79.1239 37.3709 94.5971 79.3612 38.186 96.3362 79.6456 39.1538 
97.7686 79.9492 40.3133 99.091 80.2766 41.6019 100.305 80.6113 42.8669 
101.2 80.981 44.3741 101.926 81.4115 45.8622 102.13 79.9918 46.3776 
102.907 79.2376 48.6292 102.32 78.5413 47.0933 103.178 80.1056 50.1746 
103.268 81.1783 51.3436 102.984 81.8911 52.1741 102.879 81.6559 53.263 
102.636 81.4757 54.8098 102.012 81.2897 56.5012 100.989 81.0363 58.771 
101.293 72.1424 51.9798 100.842 71.7832 50.5603 100.202 71.5331 49.1249 
99.4812 71.316 47.6769 98.572 71.2284 46.2864 97.5385 71.1322 44.9629 
96.364 71.0492 43.7469 95.1032 70.9354 42.6056 93.7955 70.796 41.5615 
92.4049 70.6905 40.6658 90.9368 70.6382 39.8681 89.4429 70.6699 39.1528 
88.0096 70.8399 38.5056 86.7137 71.1184 37.8809 85.6448 71.5349 37.2201 
84.9345 72.3395 36.4759 82.6671 72.2057 35.9845 84.2297 73.7741 35.6827 
81.3177 71.069 36.5122 79.9164 70.2049 37.2364 78.4189 69.4945 37.9171 
76.8723 69.1421 38.8108 75.4213 68.9521 39.8561 74.201 69.1063 40.978 
73.0205 69.3734 42.1849 71.8257 69.6839 43.4618 70.9598 69.975 44.9753 
70.3366 70.2922 46.4944 69.9916 70.6909 47.9636 69.8483 71.0355 49.3886 
70.0285 71.2751 50.8771 70.3181 71.3826 52.4568 70.6774 71.4478 54.1192 
71.1488 71.5188 55.8483 71.7277 71.6092 57.5853 72.5446 71.7232 59.2522 
73.6479 71.8234 60.7569 74.8463 71.9419 62.1502 75.9941 72.0322 63.4809 
77.1348 72.1121 64.813 78.3759 72.3279 66.062 79.6191 72.7219 67.2679 
80.8278 73.3125 68.388 83.3797 73.4244 68.8034 81.9644 74.1402 69.3149 
84.7996 72.8671 68.2785 86.1535 72.5192 67.8686 87.5313 72.5313 67.6765 
89.1563 72.6429 67.4105 90.8403 72.5422 66.7994 92.5264 72.3999 66.1124 
94.1737 72.3576 65.2433 95.6887 72.434 64.2217 96.9622 72.3785 63.0164 
97.9408 72.4617 61.9152 98.7716 73.0074 60.8803 99.5736 73.7491 59.8729 
100.407 74.5572 58.8819 101.25 75.3587 57.859 101.978 76.0477 56.6318 
102.712 75.1291 55.0274 102.725 76.4549 55.3135 102.427 74.2428 54.8406 
102.443 73.9914 53.9497 102.489 73.6087 52.7072 78.1848 81.3985 71.0268 
76.7583 80.9506 70.6997 75.582 80.5228 69.7472 74.3024 80.1679 68.7182 
73.0907 79.8365 67.5123 71.8666 79.516 66.2642 70.9436 79.1808 64.881 
70.0622 78.7477 63.46 69.5606 78.1321 61.9845 69.2369 77.2312 60.4171 
67.725 77.9239 54.1922 68.1094 77.7665 56.0458 67.1815 77.9035 52.4588 
66.8124 77.8436 50.7561 66.6859 77.7756 49.0261 66.6287 77.7061 47.2666 
67.1013 77.6583 45.6511 67.5985 77.6416 43.9969 68.1601 77.6725 42.396 
68.8329 77.7511 40.8599 69.6988 77.8538 39.5177 70.6595 77.8073 38.2464 
71.7353 77.4827 37.222 72.8085 77.0208 36.3059 73.898 76.3791 35.8922 
74.8307 75.5694 35.6023 76.4648 75.6074 34.9723 75.6893 74.6505 35.4148 
77.3109 76.5779 34.806 78.2647 77.3636 34.6794 79.2826 77.9084 34.5307 
80.4864 77.9911 34.5181 81.865 77.8628 34.6309 83.3782 77.6039 34.8059 
85.0204 77.4657 35.1102 86.7662 77.4208 35.4876 88.5279 77.4522 36.0475 
90.4002 77.4218 36.7433 92.5586 77.1415 37.6721 97.8948 78.3012 40.6964 
96.4287 78.0096 39.5437 99.2507 78.6139 41.9886 100.515 78.9596 43.3293 
101.422 79.4504 44.8464 68.5904 77.3241 57.7548 69.2211 76.1701 58.9094 
101.564 77.9174 45.503 102.478 77.0982 47.8441 101.777 76.4164 46.2749 
103.023 77.7633 49.5489 103.46 78.6077 51.574 103.234 80.3578 52.6872 
102.131 73.2826 51.2806 101.657 72.9114 49.8209 100.939 72.691 48.4249 
100.163 72.5206 47.0007 99.2771 72.4834 45.6013 98.2148 72.4031 44.259 
96.9998 72.3098 43.033 95.6702 72.2036 41.9144 94.3097 72.0886 40.9267 
92.9203 71.9599 40.0619 91.4714 71.8798 39.2672 90.003 71.9147 38.5944 
88.5891 71.9847 37.9644 87.3222 72.1007 37.4246 86.4094 72.2029 37.0458 
86.2522 72.9855 36.5363 86.2087 74.2622 36.0239 81.4536 73.0901 35.4686 
82.4882 74.5077 35.2181 80.2604 71.8921 35.8193 78.9731 71.128 36.4501 
77.5652 70.4644 37.0775 76.077 70.2086 37.8505 74.6012 69.9155 38.8508 
73.3633 70.0133 39.9561 72.0799 70.293 41.1261 70.5291 70.9464 42.3668 
69.7829 71.1638 44.3571 69.2704 71.4399 46.0845 68.9671 71.757 47.6632 
68.89 72.0721 49.2488 69.0912 72.3438 50.848 69.4218 72.5325 52.4927 
69.8695 72.6938 54.1801 70.3064 72.7918 55.9693 70.807 72.909 57.7383 
71.5797 73.0837 59.5378 72.7274 73.0599 61.1582 73.886 73.0788 62.5741 
74.9653 73.0858 63.9496 76.0546 73.1631 65.2756 77.2074 73.3314 66.5702 
78.3777 73.663 67.7618 79.5261 74.204 68.8515 80.6169 74.9577 69.7639 
83.0694 75.0785 70.0445 81.6606 75.8858 70.5408 84.4142 74.3651 69.4845 
85.5788 73.7815 68.8763 86.4303 73.3193 68.41 87.4114 73.6771 68.4071 
89.0978 74.3509 68.2168 91.0795 74.0447 67.2346 92.7169 73.7994 66.3446 
94.1682 73.7458 65.4128 95.7893 74.228 64.2701 97.1485 73.7339 63.0075 
97.9018 73.4169 62.177 98.5053 74.0912 61.5372 99.3982 74.9206 60.7372 
100.23 75.8317 59.7121 101.012 76.7017 58.529 101.825 77.4792 57.1758 
102.57 77.9871 55.6351 103.171 76.6447 53.6883 103.159 78.3188 53.8608 
102.953 75.156 53.7243 100.049 79.5795 60.4764 99.0312 78.3335 61.6441 
97.9893 77.1095 62.6247 96.9325 75.7916 63.465 94.8899 75.6302 65.0933 
93.7833 76.4888 66.0491 92.5855 77.1905 67.2882 91.3274 77.7982 68.5095 
90.0563 78.428 69.663 88.7478 79.0627 70.66 87.2982 79.8622 71.1521 
85.8752 80.6099 71.4656 84.9893 79.2708 71.5008 83.9619 78.0464 71.4023 
81.3943 77.8443 71.3985 82.8142 76.9217 71.09 79.9784 78.856 71.4877 
78.9281 80.1662 71.3285 102.263 74.2431 49.1662 102.777 74.6015 50.6925 
101.478 73.9509 47.7923 100.709 73.7421 46.4659 99.921 73.8454 45.0669 
98.8014 73.7924 43.6443 97.5225 73.6748 42.3813 96.1074 73.5651 41.2819 
94.7117 73.4122 40.3151 93.3001 73.2612 39.5223 91.8832 73.1375 38.7629 
90.4587 73.1589 38.0686 89.0106 73.1913 37.4309 87.601 73.1481 36.9085 
87.8544 74.4141 36.4592 83.0953 76.0858 34.9898 81.1067 75.1657 34.9175 
81.6375 76.5025 34.7946 80.275 73.9534 35.0981 79.2528 72.9128 35.4705 
78.1483 72.0555 35.8602 76.9382 71.5197 36.3781 75.3872 71.6413 36.9377 
73.8784 71.1635 38.0134 72.7582 71.1152 39.1081 71.5594 71.3665 40.0412 
70.551 71.9857 40.8491 68.3346 72.8789 45.8232 68.7696 72.7303 44.1661 
68.0361 73.0772 47.4426 67.9942 73.2944 49.1412 68.2262 73.536 50.7961 
68.5647 73.7149 52.4788 69.0723 73.9109 54.1567 69.4993 74.0508 55.9076 
69.9151 74.2556 57.7467 70.4081 74.6712 59.925 72.9344 74.1564 63.0963 
71.8058 74.2612 61.6839 73.9748 74.1473 64.4388 75.0339 74.2526 65.7356 
76.0974 74.373 67.0588 77.2554 74.7135 68.1958 78.3576 75.1244 69.2911 
79.3811 75.8392 70.0939 80.2058 76.7764 70.883 69.2139 72.7469 42.5114 
69.7218 73.1732 41.0528 103.055 79.9769 54.3818 102.328 79.5996 56.0934 
101.512 79.0999 57.8535 100.614 78.1334 59.3733 99.7607 77.1008 60.6066 
98.8001 76.0139 61.6096 97.9314 74.9055 62.4808 77.5001 79.4548 70.9447 
76.0632 78.9825 70.026 74.7678 78.6182 68.9857 73.5737 78.3123 67.7539 
72.4444 78.0284 66.5151 71.5029 77.763 65.1816 70.6735 77.3674 63.9129 
70.2481 76.9121 62.597 70.1273 75.996 61.3879 69.1358 75.4944 57.3685 
68.6607 76.4226 56.9439 68.343 76.4835 55.6967 67.9598 76.4877 54.0561 
67.4121 76.398 52.4089 66.9896 76.2715 50.7219 66.8303 76.1585 49.0213 
66.8035 76.0259 47.2492 67.2991 75.9883 45.6582 67.7899 75.9584 44.0415 
68.3342 76.0335 42.4778 68.9449 76.1521 41.0028 69.7521 76.2993 39.7339 
70.6073 76.3043 38.5367 71.5998 76.1284 37.5865 72.4969 75.7994 36.7393 
73.448 75.3966 36.2605 74.2151 74.6636 36.0806 74.9956 73.7793 36.0056 
77.3649 74.6897 35.0809 76.5858 73.7348 35.3391 78.1692 75.6436 34.8925 
78.9483 76.488 34.7302 79.554 77.0825 34.6224 80.432 76.8513 34.6442 
84.7395 75.7872 35.3015 86.3514 78.3786 71.276 85.3512 77.1834 70.9557 
84.2309 76.0462 70.6374 85.5151 75.316 69.9288 86.596 74.5274 69.2161 
87.859 75.4955 69.4011 92.9905 75.1795 66.3411 91.6791 75.6115 67.3524 
94.0061 74.843 65.6088 86.482 75.8364 35.6787 88.1645 75.9068 36.1927 
89.8014 75.85 36.8581 91.3428 75.6436 37.4905 93.4484 75.7595 38.443 
92.3348 75.2374 38.0797 97.9824 76.7156 41.1903 96.5119 76.4669 40.0657 
99.3176 76.9883 42.5082 100.571 77.3369 43.9889 100.641 75.5392 44.8184 
101.788 75.1956 47.1689 101.089 74.8206 46.1147 102.518 75.6613 48.5669 
103.025 76.1371 50.1633 90.2515 76.1067 68.5033 89.0029 76.8165 69.6921 
78.5269 77.7915 70.8919 68.827 75.2807 55.7608 68.4088 75.1616 54.0833 
67.8808 75 52.4388 67.4744 74.8269 50.7651 67.2448 74.6463 49.0819 
67.2485 74.4636 47.311 67.6644 74.3973 45.6894 68.1434 74.3518 44.0887 
68.6248 74.3985 42.5177 69.2309 74.6137 41.0841 69.9373 74.8177 39.9019 
70.6865 74.888 38.7763 73.5662 73.9358 36.5468 73.1139 74.6775 36.5349 
79.1803 74.7774 34.9559 78.3139 73.8042 35.2367 79.914 75.8266 34.7652 
76.7463 77.464 70.0017 75.4433 77.1438 68.9264 74.2431 76.8594 67.7307 
73.1576 76.6111 66.5141 72.2298 76.442 65.1727 71.4185 76.2376 63.9937 
70.8593 76.0887 63.0503 71.1695 75.3117 62.4331 72.0902 75.1842 63.631 
73.029 75.2235 64.9004 74.0281 75.3426 66.1934 75.0898 75.5304 67.4539 
76.2446 75.8159 68.6236 77.3678 76.1538 69.6443 78.3961 76.5487 70.3291 
77.4488 72.97 35.5333 76.7049 72.3858 35.8506 75.8609 72.8838 35.9369 
72.2288 72.3512 38.4523 73.1827 72.4325 37.5001 71.2947 72.4138 39.2961 
70.6817 72.6333 40.032 70.2763 73.5413 39.9888 99.2459 75.3316 43.0711 
97.8679 75.1595 41.7564 96.4141 74.9701 40.6224 94.9843 74.7489 39.6372 
93.5177 74.5033 38.9489 92.1817 74.301 38.3345 90.864 74.3815 37.6872 
89.3926 74.46 37.0437 71.8532 73.5944 38.1299 72.7046 73.6592 37.2603 
70.9576 73.5785 38.9704 73.6322 67.2584 47.4302 72.8734 67.6474 48.8071 
84.5578 83.9083 71.046 103.148 74.873 52.1998 103.426 76.5275 51.8491 
72.4554 74.7533 37.0919 71.6353 74.8389 37.8856 87.7099 77.6422 70.4856 
74.2265 72.8824 36.6181 86.7095 76.325 70.3863 94.9748 76.1341 39.0823 
94.7479 77.6699 38.5427 

CELLS 1061 5305
4 0 1 2 3 
4 1 4 5 2 
4 4 6 7 5 
4 6 8 9 7 
4 8 10 11 9 
4 10 12 13 11 
4 12 14 15 13 
4 14 16 17 15 
4 16 18 19 17 
4 18 20 21 19 
4 20 22 23 21 
4 22 24 25 23 
4 24 26 27 25 
4 26 28 29 27 
4 28 30 31 29 
4 30 32 33 31 
4 32 34 35 33 
4 34 36 37 35 
4 36 38 39 37 
4 38 40 41 39 
4 40 42 43 41 
4 42 44 45 43 
4 44 46 47 45 
4 46 48 49 47 
4 48 50 51 49 
4 50 52 53 51 
4 52 54 55 53 
4 54 56 57 55 
4 56 58 59 57 
4 58 60 61 59 
4 60 62 63 61 
4 62 64 65 63 
4 64 66 67 65 
4 66 68 69 67 
4 68 70 71 69 
4 70 72 73 71 
4 72 74 75 73 
4 74 76 77 75 
4 76 78 79 77 
4 78 80 81 79 
4 80 82 83 81 
4 82 0 3 83 
4 84 85 86 87 
4 85 88 89 86 
4 88 90 91 89 
4 90 92 93 91 
4 92 94 95 93 
4 94 96 97 95 
4 96 98 99 97 
4 98 100 101 99 
4 100 102 103 101 
4 102 104 105 103 
4 104 106 107 105 
4 106 108 109 107 
4 108 110 111 109 
4 110 112 113 111 
4 112 114 115 113 
4 114 116 117 115 
4 116 118 119 117 
4 118 120 121 119 
4 120 122 123 121 
4 122 124 125 123 
4 124 126 127 125 
4 126 128 129 127 
4 128 130 131 129 
4 130 132 133 131 
4 132 134 135 133 
4 134 136 137 135 
4 136 138 139 137 
4 138 140 141 139 
4 140 142 143 141 
4 142 144 145 143 
4 144 146 147 145 
4 146 148 149 147 
4 148 150 151 149 
4 150 152 153 151 
4 152 154 155 153 
4 154 156 157 155 
4 156 158 159 157 
4 158 160 161 159 
4 160 162 163 161 
4 162 164 165 163 
4 164 166 167 165 
4 166 168 169 167 
4 168 170 171 169 
4 170 172 173 171 
4 172 174 175 173 
4 174 176 177 175 
4 176 178 179 177 
4 178 180 181 179 
4 180 182 183 181 
4 182 184 185 183 
4 184 186 187 185 
4 186 188 189 187 
4 188 190 191 189 
4 190 192 193 191 
4 192 194 195 193 
4 194 196 197 195 
4 196 198 199 197 
4 198 84 87 199 
4 2 5 200 201 
4 5 7 202 200 
4 7 9 203 202 
4 9 11 204 203 
4 11 13 205 204 
4 13 15 206 205 
4 15 17 207 206 
4 17 19 208 207 
4 19 21 209 208 
4 21 23 210 209 
4 23 25 211 210 
4 25 27 212 211 
4 27 29 213 212 
4 29 31 214 213 
4 31 33 215 214 
4 33 35 216 215 
4 35 37 217 216 
4 37 39 218 217 
4 39 41 219 218 
4 41 43 220 219 
4 43 45 221 220 
4 45 47 222 221 
4 47 49 223 222 
4 49 51 224 223 
4 51 53 225 224 
4 53 55 226 225 
4 55 57 227 226 
4 57 59 228 227 
4 59 61 229 228 
4 61 63 230 229 
4 63 65 231 230 
4 65 67 232 231 
4 67 69 233 232 
4 69 71 234 233 
4 71 73 235 234 
4 73 75 236 235 
4 75 77 237 236 
4 77 79 238 237 
4 79 81 239 238 
4 81 83 240 239 
4 83 3 241 240 
4 3 2 201 241 
4 86 89 242 243 
4 89 91 244 242 
4 91 93 245 244 
4 93 95 246 245 
4 95 97 247 246 
4 97 99 248 247 
4 99 101 249 248 
4 101 103 250 249 
4 103 105 251 250 
4 105 107 252 251 
4 107 109 253 252 
4 109 111 254 253 
4 111 113 255 254 
4 113 115 256 255 
4 115 117 257 256 
4 117 119 258 257 
4 119 121 259 258 
4 121 123 260 259 
4 123 125 261 260 
4 125 127 262 261 
4 127 129 263 262 
4 129 131 264 263 
4 131 133 265 264 
4 135 137 266 267 
4 137 139 268 266 
4 139 141 269 268 
4 141 143 270 269 
4 143 145 271 270 
4 145 147 272 271 
4 147 149 273 272 
4 149 151 274 273 
4 151 153 275 274 
4 153 155 276 275 
4 155 157 277 276 
4 157 159 278 277 
4 159 161 279 278 
4 161 163 280 279 
4 163 165 281 280 
4 165 167 282 281 
4 167 169 283 282 
4 169 171 284 283 
4 171 173 285 284 
4 173 175 286 285 
4 175 177 287 286 
4 177 179 288 287 
4 179 181 289 288 
4 181 183 290 289 
4 183 185 291 290 
4 185 187 292 291 
4 187 189 293 292 
4 189 191 294 293 
4 191 193 295 294 
4 193 195 296 295 
4 195 197 297 296 
4 197 199 298 297 
4 199 87 299 298 
4 87 86 243 299 
4 133 135 267 300 
4 265 133 300 301 
4 203 204 302 303 
4 204 205 304 302 
4 205 206 305 304 
4 206 207 306 305 
4 207 208 307 306 
4 208 209 308 307 
4 209 210 309 308 
4 210 211 310 309 
4 211 212 311 310 
4 212 213 312 311 
4 213 214 313 312 
4 214 215 314 313 
4 215 216 315 314 
4 216 217 316 315 
4 217 218 317 316 
4 218 219 318 317 
4 219 220 319 318 
4 220 221 320 319 
4 221 222 321 320 
4 222 223 322 321 
4 224 225 323 324 
4 225 226 325 323 
4 226 227 326 325 
4 227 228 327 326 
4 228 229 328 327 
4 229 230 329 328 
4 230 231 330 329 
4 231 232 331 330 
4 232 233 332 331 
4 233 234 333 332 
4 234 235 334 333 
4 235 236 335 334 
4 236 237 336 335 
4 237 238 337 336 
4 238 239 338 337 
4 239 240 339 338 
4 240 241 340 339 
4 241 201 341 340 
4 201 200 342 341 
4 223 224 324 343 
4 322 223 343 344 
4 301 300 345 346 
4 300 267 266 345 
4 266 268 347 345 
4 268 269 348 347 
4 269 270 349 348 
4 270 271 350 349 
4 271 272 351 350 
4 272 273 352 351 
4 273 274 353 352 
4 275 276 354 355 
4 276 277 356 354 
4 277 278 357 356 
4 278 279 358 357 
4 279 280 359 358 
4 280 281 360 359 
4 281 282 361 360 
4 282 283 362 361 
4 283 284 363 362 
4 284 285 364 363 
4 285 286 365 364 
4 286 287 366 365 
4 287 288 367 366 
4 288 289 368 367 
4 289 290 369 368 
4 290 291 370 369 
4 291 292 371 370 
4 292 293 372 371 
4 293 294 373 372 
4 294 295 374 373 
4 295 296 375 374 
4 296 297 376 375 
4 297 298 377 376 
4 298 299 378 377 
4 299 243 379 378 
4 243 242 380 379 
4 242 244 381 380 
4 244 245 382 381 
4 245 246 383 382 
4 246 247 384 383 
4 247 248 385 384 
4 248 249 386 385 
4 249 250 387 386 
4 250 251 388 387 
4 251 252 389 388 
4 252 253 390 389 
4 253 254 391 390 
4 254 255 392 391 
4 255 256 393 392 
4 256 257 394 393 
4 257 258 395 394 
4 258 259 396 395 
4 259 260 397 396 
4 260 261 398 397 
4 261 262 399 398 
4 262 263 400 399 
4 263 264 401 400 
4 264 265 402 401 
4 265 301 403 402 
4 301 346 404 403 
4 346 405 406 404 
4 346 345 347 405 
4 274 275 355 407 
4 353 274 407 408 
4 344 343 409 410 
4 343 324 411 409 
4 324 323 412 411 
4 323 325 413 412 
4 325 326 414 413 
4 326 327 415 414 
4 327 328 416 415 
4 328 329 417 416 
4 329 330 418 417 
4 330 331 419 418 
4 331 332 420 419 
4 332 333 421 420 
4 333 334 422 421 
4 334 335 423 422 
4 335 336 424 423 
4 337 338 425 426 
4 338 339 427 425 
4 339 340 428 427 
4 340 341 429 428 
4 341 342 430 429 
4 303 302 431 432 
4 302 304 433 431 
4 304 305 434 433 
4 305 306 435 434 
4 306 307 436 435 
4 307 308 437 436 
4 308 309 438 437 
4 309 310 439 438 
4 310 311 440 439 
4 311 312 441 440 
4 312 313 442 441 
4 313 314 443 442 
4 314 315 444 443 
4 315 316 445 444 
4 316 317 446 445 
4 317 318 447 446 
4 318 319 448 447 
4 319 320 449 448 
4 320 321 450 449 
4 321 322 451 450 
4 322 344 452 451 
4 344 410 453 452 
4 410 454 455 453 
4 410 409 456 454 
4 457 303 432 458 
4 459 457 458 460 
4 336 337 426 461 
4 424 336 461 462 
4 347 348 463 405 
4 348 349 464 463 
4 349 350 465 464 
4 350 351 466 465 
4 351 352 467 466 
4 352 353 468 467 
4 353 408 469 468 
4 408 470 471 469 
4 408 407 472 470 
4 407 355 473 472 
4 355 354 474 473 
4 354 356 475 474 
4 356 357 476 475 
4 357 358 477 476 
4 358 359 478 477 
4 359 360 479 478 
4 360 361 480 479 
4 361 362 481 480 
4 362 363 482 481 
4 363 364 483 482 
4 364 365 484 483 
4 365 366 485 484 
4 366 367 486 485 
4 367 368 487 486 
4 368 369 488 487 
4 369 370 489 488 
4 370 371 490 489 
4 371 372 491 490 
4 372 373 492 491 
4 373 374 493 492 
4 374 375 494 493 
4 375 376 495 494 
4 376 377 496 495 
4 377 378 497 496 
4 378 379 498 497 
4 379 380 499 498 
4 380 381 500 499 
4 381 382 501 500 
4 382 383 502 501 
4 383 384 503 502 
4 384 385 504 503 
4 385 386 505 504 
4 386 387 506 505 
4 387 388 507 506 
4 388 389 508 507 
4 389 390 509 508 
4 390 391 510 509 
4 391 392 511 510 
4 392 393 512 511 
4 393 394 513 512 
4 395 396 514 515 
4 396 397 516 514 
4 397 398 517 516 
4 398 399 518 517 
4 399 400 519 518 
4 400 401 520 519 
4 401 402 521 520 
4 402 403 522 521 
4 403 404 523 522 
4 404 406 524 523 
4 406 525 526 524 
4 406 405 527 525 
4 405 463 528 527 
4 463 464 529 528 
4 464 465 530 529 
4 465 466 531 530 
4 466 467 532 531 
4 522 523 533 534 
4 523 524 535 533 
4 524 526 536 535 
4 526 537 538 536 
4 526 525 539 537 
4 525 527 540 539 
4 527 528 541 540 
4 528 529 542 541 
4 529 530 543 542 
4 530 531 544 543 
4 531 532 545 544 
4 394 395 515 546 
4 513 394 546 547 
4 409 411 548 456 
4 411 412 549 548 
4 412 413 550 549 
4 413 414 551 550 
4 414 415 552 551 
4 415 416 553 552 
4 416 417 554 553 
4 417 418 555 554 
4 418 419 556 555 
4 419 420 557 556 
4 420 421 558 557 
4 421 422 559 558 
4 422 423 560 559 
4 423 424 561 560 
4 424 462 562 561 
4 462 563 564 562 
4 462 461 565 563 
4 461 426 566 565 
4 426 425 567 566 
4 425 427 568 567 
4 427 428 569 568 
4 428 429 570 569 
4 429 430 571 570 
4 430 572 573 571 
4 572 574 575 573 
4 574 459 576 575 
4 459 460 577 576 
4 460 458 578 577 
4 458 432 579 578 
4 432 431 580 579 
4 431 433 581 580 
4 433 434 582 581 
4 434 435 583 582 
4 435 436 584 583 
4 436 437 585 584 
4 437 438 586 585 
4 438 439 587 586 
4 439 440 588 587 
4 440 441 589 588 
4 442 443 590 591 
4 443 444 592 590 
4 444 445 593 592 
4 445 446 594 593 
4 446 447 595 594 
4 447 448 596 595 
4 448 449 597 596 
4 449 450 598 597 
4 450 451 599 598 
4 451 452 600 599 
4 452 453 601 600 
4 453 455 602 601 
4 455 603 604 602 
4 455 454 605 603 
4 454 456 606 605 
4 441 442 591 607 
4 589 441 607 608 
4 469 471 609 610 
4 471 611 612 609 
4 471 470 613 611 
4 470 472 614 613 
4 472 473 615 614 
4 473 474 616 615 
4 474 475 617 616 
4 475 476 618 617 
4 476 477 619 618 
4 477 478 620 619 
4 478 479 621 620 
4 479 480 622 621 
4 480 481 623 622 
4 481 482 624 623 
4 482 483 625 624 
4 483 484 626 625 
4 484 485 627 626 
4 485 486 628 627 
4 486 487 629 628 
4 487 488 630 629 
4 488 489 631 630 
4 489 490 632 631 
4 490 491 633 632 
4 491 492 634 633 
4 492 493 635 634 
4 493 494 636 635 
4 494 495 637 636 
4 495 496 638 637 
4 497 498 639 640 
4 498 499 641 639 
4 499 500 642 641 
4 500 501 643 642 
4 501 502 644 643 
4 502 503 645 644 
4 503 504 646 645 
4 504 505 647 646 
4 505 506 648 647 
4 506 507 649 648 
4 507 508 650 649 
4 508 509 651 650 
4 509 510 652 651 
4 510 511 653 652 
4 511 512 654 653 
4 512 513 655 654 
4 513 547 656 655 
4 547 657 658 656 
4 547 546 659 657 
4 546 515 660 659 
4 515 514 661 660 
4 514 516 662 661 
4 516 517 663 662 
4 517 518 664 663 
4 518 519 665 664 
4 519 520 521 665 
4 496 497 640 666 
4 638 496 666 667 
4 610 609 668 545 
4 609 612 669 668 
4 612 670 671 669 
4 612 611 672 670 
4 611 613 673 672 
4 613 614 674 673 
4 614 615 675 674 
4 615 616 676 675 
4 616 617 677 676 
4 617 618 678 677 
4 618 619 679 678 
4 619 620 680 679 
4 620 621 681 680 
4 621 622 682 681 
4 622 623 683 682 
4 623 624 684 683 
4 624 625 685 684 
4 625 626 686 685 
4 626 627 687 686 
4 627 628 688 687 
4 628 629 689 688 
4 629 630 690 689 
4 630 631 691 690 
4 631 632 692 691 
4 632 633 693 692 
4 633 634 694 693 
4 634 635 695 694 
4 635 636 696 695 
4 636 637 697 696 
4 637 638 698 697 
4 638 667 699 698 
4 667 700 701 699 
4 667 666 702 700 
4 666 640 703 702 
4 640 639 704 703 
4 639 641 705 704 
4 641 642 706 705 
4 642 643 707 706 
4 643 644 708 707 
4 644 645 709 708 
4 645 646 710 709 
4 646 647 711 710 
4 647 648 712 711 
4 648 649 713 712 
4 649 650 714 713 
4 650 651 715 714 
4 651 652 716 715 
4 652 653 717 716 
4 653 654 718 717 
4 654 655 656 718 
4 656 658 719 718 
4 658 720 721 719 
4 658 657 722 720 
4 657 659 723 722 
4 659 660 724 723 
4 660 661 725 724 
4 661 662 726 725 
4 662 663 727 726 
4 663 664 728 727 
4 664 665 534 728 
4 665 521 522 534 
4 456 548 729 606 
4 548 549 730 729 
4 549 550 731 730 
4 550 551 732 731 
4 551 552 733 732 
4 552 553 734 733 
4 553 554 735 734 
4 554 555 736 735 
4 555 556 737 736 
4 556 557 738 737 
4 557 558 739 738 
4 558 559 740 739 
4 559 560 741 740 
4 560 561 742 741 
4 561 562 743 742 
4 562 564 744 743 
4 564 745 746 744 
4 564 563 747 745 
4 563 565 748 747 
4 565 566 749 748 
4 566 567 750 749 
4 567 568 751 750 
4 568 569 752 751 
4 569 570 753 752 
4 570 571 754 753 
4 571 573 755 754 
4 573 575 756 755 
4 575 576 757 756 
4 576 577 758 757 
4 577 578 759 758 
4 578 579 760 759 
4 579 580 761 760 
4 580 581 762 761 
4 581 582 763 762 
4 582 583 764 763 
4 583 584 765 764 
4 584 585 766 765 
4 585 586 767 766 
4 586 587 768 767 
4 587 588 769 768 
4 588 589 770 769 
4 589 608 771 770 
4 608 772 773 771 
4 608 607 774 772 
4 607 591 775 774 
4 591 590 776 775 
4 590 592 777 776 
4 592 593 778 777 
4 593 594 779 778 
4 594 595 780 779 
4 595 596 781 780 
4 596 597 782 781 
4 597 598 783 782 
4 598 599 784 783 
4 599 600 785 784 
4 600 601 786 785 
4 601 602 787 786 
4 602 604 788 787 
4 604 789 790 788 
4 604 603 791 789 
4 603 605 792 791 
4 605 606 793 792 
4 674 675 794 673 
4 675 676 795 794 
4 676 677 796 795 
4 677 678 797 796 
4 678 679 798 797 
4 679 680 799 798 
4 680 681 800 799 
4 681 682 801 800 
4 682 683 802 801 
4 683 684 803 802 
4 685 686 804 805 
4 686 687 806 804 
4 687 688 807 806 
4 688 689 808 807 
4 689 690 809 808 
4 690 691 810 809 
4 691 692 811 810 
4 692 693 812 811 
4 693 694 813 812 
4 694 695 814 813 
4 695 696 815 814 
4 696 697 816 815 
4 697 698 817 816 
4 698 699 818 817 
4 699 701 819 818 
4 701 820 821 819 
4 701 700 822 820 
4 700 702 823 822 
4 702 703 824 823 
4 703 704 825 824 
4 704 705 826 825 
4 705 706 827 826 
4 706 707 828 827 
4 707 708 829 828 
4 708 709 830 829 
4 709 710 831 830 
4 710 711 832 831 
4 713 714 833 834 
4 714 715 835 833 
4 715 716 836 835 
4 716 717 837 836 
4 717 718 719 837 
4 684 685 805 838 
4 803 684 838 839 
4 719 721 840 837 
4 721 841 842 840 
4 721 720 843 841 
4 720 722 844 843 
4 722 723 845 844 
4 723 724 725 845 
4 606 729 846 793 
4 729 730 847 846 
4 730 731 848 847 
4 731 732 849 848 
4 732 733 850 849 
4 733 734 851 850 
4 734 735 852 851 
4 735 736 853 852 
4 736 737 854 853 
4 737 738 855 854 
4 738 739 856 855 
4 739 740 857 856 
4 740 741 858 857 
4 741 742 859 858 
4 742 743 860 859 
4 743 744 861 860 
4 744 746 862 861 
4 746 745 863 864 
4 745 747 865 863 
4 747 748 866 865 
4 748 749 867 866 
4 749 750 868 867 
4 750 751 869 868 
4 751 752 870 869 
4 752 753 871 870 
4 753 754 872 871 
4 754 755 873 872 
4 755 756 874 873 
4 756 757 875 874 
4 757 758 876 875 
4 758 759 877 876 
4 759 760 878 877 
4 760 761 879 878 
4 761 762 880 879 
4 762 763 881 880 
4 763 764 882 881 
4 764 765 883 882 
4 765 766 884 883 
4 766 767 885 884 
4 767 768 886 885 
4 768 769 887 886 
4 769 770 888 887 
4 770 771 889 888 
4 771 773 890 889 
4 773 891 892 890 
4 773 772 893 891 
4 772 774 894 893 
4 774 775 895 894 
4 775 776 896 895 
4 776 777 897 896 
4 777 778 898 897 
4 778 779 899 898 
4 779 780 900 899 
4 780 781 901 900 
4 781 782 902 901 
4 782 783 903 902 
4 783 784 904 903 
4 784 785 905 904 
4 785 786 906 905 
4 786 787 907 906 
4 787 788 908 907 
4 788 790 909 908 
4 790 910 911 909 
4 791 792 912 789 
4 534 533 913 728 
4 533 535 914 913 
4 535 536 915 914 
4 536 538 916 915 
4 538 917 901 916 
4 538 537 918 917 
4 537 539 919 918 
4 539 540 920 919 
4 540 541 921 920 
4 541 542 922 921 
4 542 543 923 922 
4 543 544 924 923 
4 544 545 668 924 
4 668 669 925 924 
4 669 671 926 925 
4 671 927 928 926 
4 671 670 929 927 
4 670 672 930 929 
4 672 673 794 930 
4 846 847 931 932 
4 847 848 933 931 
4 848 849 934 933 
4 849 850 935 934 
4 850 851 936 935 
4 851 852 937 936 
4 852 853 938 937 
4 853 854 939 938 
4 854 855 940 939 
4 855 856 941 940 
4 856 857 942 941 
4 857 858 943 942 
4 858 859 944 943 
4 861 862 945 944 
4 946 864 947 948 
4 864 863 949 947 
4 863 865 950 949 
4 865 866 951 950 
4 866 867 952 951 
4 867 868 953 952 
4 868 869 954 953 
4 869 870 955 954 
4 870 871 956 955 
4 871 872 957 956 
4 873 874 958 959 
4 874 875 960 958 
4 875 876 961 960 
4 876 877 962 961 
4 877 878 963 962 
4 878 879 964 963 
4 879 880 965 964 
4 880 881 966 965 
4 881 882 967 966 
4 883 884 968 969 
4 884 885 970 968 
4 885 886 971 970 
4 886 887 972 971 
4 887 888 973 972 
4 888 889 974 973 
4 889 890 975 974 
4 890 892 976 975 
4 892 928 927 976 
4 882 883 969 967 
4 872 873 959 977 
4 957 872 977 978 
4 725 726 979 845 
4 726 727 980 979 
4 727 728 981 980 
4 728 913 982 981 
4 913 914 983 982 
4 914 915 984 983 
4 915 916 985 984 
4 916 901 902 985 
4 794 795 986 930 
4 795 796 987 986 
4 796 797 988 987 
4 797 798 989 988 
4 798 799 990 989 
4 799 800 991 990 
4 800 801 992 991 
4 801 802 993 992 
4 802 803 994 993 
4 803 839 967 994 
4 967 839 995 966 
4 839 838 996 995 
4 838 805 997 996 
4 805 804 998 997 
4 804 806 999 998 
4 806 807 1000 999 
4 807 808 1001 1000 
4 808 809 1002 1001 
4 809 810 1003 1002 
4 810 811 1004 1003 
4 811 812 1005 1004 
4 812 813 1006 1005 
4 813 814 1007 1006 
4 814 815 1008 1007 
4 815 816 1009 1008 
4 816 817 1010 1009 
4 817 818 1011 1010 
4 818 819 1012 1011 
4 819 821 1013 1012 
4 821 820 1014 1015 
4 820 822 1016 1014 
4 822 823 1017 1016 
4 823 824 1018 1017 
4 824 825 1019 1018 
4 825 826 948 1019 
4 826 827 946 948 
4 827 828 1020 946 
4 902 903 904 985 
4 924 925 1021 923 
4 925 926 1022 1021 
4 926 928 1023 1022 
4 928 892 891 1023 
4 891 893 1024 1023 
4 893 894 1025 1024 
4 896 897 1026 1025 
4 898 899 1027 1028 
4 899 900 1029 1027 
4 900 901 917 1029 
4 828 829 1030 1020 
4 829 830 1031 1030 
4 830 831 1032 1031 
4 831 832 1033 1032 
4 832 1034 1035 1033 
4 834 833 1036 1037 
4 833 835 1038 1036 
4 835 836 1039 1038 
4 836 837 840 1039 
4 904 905 984 985 
4 917 918 1027 1029 
4 840 842 1040 1039 
4 842 1041 1042 1040 
4 842 841 1043 1041 
4 841 843 1044 1043 
4 844 845 979 911 
4 979 980 909 911 
4 980 981 908 909 
4 981 982 907 908 
4 983 984 905 906 
4 906 907 982 983 
4 918 919 1028 1027 
4 919 920 1045 1028 
4 920 921 1046 1045 
4 927 929 1047 976 
4 929 930 986 1047 
4 966 995 1048 965 
4 997 998 1049 1048 
4 998 999 1050 1049 
4 999 1000 1051 1050 
4 1000 1001 1052 1051 
4 1001 1002 1053 1052 
4 1002 1003 1054 1053 
4 1003 1004 1055 1054 
4 1004 1005 1056 1055 
4 1005 1006 1057 1056 
4 1006 1007 1058 1057 
4 1007 1008 1059 1058 
4 1011 1012 1060 1061 
4 1014 1016 1062 1063 
4 1016 1017 1064 1062 
4 1017 1018 1019 1064 
4 1019 948 947 1064 
4 986 987 1065 1047 
4 987 988 1066 1065 
4 988 989 1067 1066 
4 989 990 1068 1067 
4 990 991 1069 1068 
4 991 992 1070 1069 
4 992 993 1071 1070 
4 993 994 1072 1071 
4 994 967 969 1072 
4 947 949 1062 1064 
4 969 968 1073 1072 
4 968 970 1074 1073 
4 970 971 1075 1074 
4 971 972 1076 1075 
4 972 973 1077 1076 
4 973 974 1078 1077 
4 974 975 1079 1078 
4 975 976 1047 1079 
4 949 950 1063 1062 
4 789 912 910 790 
4 932 931 1043 1044 
4 931 933 1041 1043 
4 950 951 1080 1063 
4 933 934 1042 1041 
4 951 952 1081 1080 
4 952 953 1082 1081 
4 954 955 1083 1084 
4 955 956 1085 1083 
4 956 957 1086 1085 
4 957 978 1087 1086 
4 978 1057 1058 1087 
4 978 977 1056 1057 
4 977 959 1055 1056 
4 959 958 1054 1055 
4 958 960 1053 1054 
4 960 961 1052 1053 
4 961 962 1051 1052 
4 934 935 1040 1042 
4 935 936 1088 1040 
4 936 937 1089 1088 
4 937 938 1090 1089 
4 938 939 1091 1090 
4 939 940 1092 1091 
4 940 941 1093 1092 
4 941 942 1094 1093 
4 942 943 1095 1094 
4 943 944 945 1095 
4 962 963 1050 1051 
4 963 964 1049 1050 
4 1037 1036 1089 1090 
4 1036 1038 1088 1089 
4 1038 1039 1040 1088 
4 1031 1032 1095 945 
4 1032 1033 1094 1095 
4 1093 1094 1033 1035 
4 1047 1065 1078 1079 
4 1065 1066 1077 1078 
4 1080 1081 1082 1015 
4 1084 1083 1096 1097 
4 1083 1085 1098 1096 
4 1085 1086 1087 1098 
4 1058 1059 1098 1087 
4 1066 1067 1076 1077 
4 1067 1068 1075 1076 
4 1068 1069 1074 1075 
4 1073 1074 1069 1070 
4 1070 1071 1072 1073 
4 342 1099 572 430 
4 1099 1100 574 572 
4 1100 457 459 574 
4 1099 342 200 202 
4 1100 1099 202 203 
4 457 1100 203 303 
4 467 468 1101 532 
4 468 469 610 1101 
4 1101 610 545 532 
4 792 793 1102 912 
4 793 846 932 1102 
4 1102 932 1044 1103 
4 912 1102 1103 910 
4 910 1103 844 911 
4 1103 1044 843 844 
4 860 861 944 859 
4 1035 1034 1092 1093 
4 1015 1014 1063 1080 
4 1015 1082 1013 821 
4 1025 894 895 896 
4 1061 1104 1010 1011 
4 1104 1105 1009 1010 
4 1105 1059 1008 1009 
4 1059 1105 1096 1098 
4 1106 1046 921 922 
4 1106 922 923 1021 
4 1048 1049 964 965 
4 1048 995 996 997 
4 1097 1060 1107 1084 
4 1060 1012 1013 1107 
4 1107 1013 1082 953 
4 1084 1107 953 954 
4 1097 1096 1105 1104 
4 1104 1061 1060 1097 
4 1021 1022 1108 1106 
4 1022 1023 1024 1108 
4 1108 1024 1025 1026 
4 1106 1108 1026 1046 
4 897 898 1028 1045 
4 897 1045 1046 1026 
4 1091 1109 1037 1090 
4 1109 1110 834 1037 
4 1110 712 713 834 
4 1109 1091 1092 1034 
4 1110 1109 1034 832 
4 712 1110 832 711 
4 862 1030 1031 945 
4 746 864 946 1020 
4 746 1020 1030 862 

CELL_TYPES 1061
9
9
9
9
9
9
9
9
9
9
9
9
9
9
9
9
9
9
9
9
9
9
9
9
9
9
9
9
9
9
9
9
9
9
9
9
9
9
9
9
9
9
9
9
9
9
9
9
9
9
9
9
9
9
9
9
9
9
9
9
9
9
9
9
9
9
9
9
9
9
9
9
9
9
9
9
9
9
9
9
9
9
9
9
9
9
9
9
9
9
9
9
9
9
9
9
9
9
9
9
9
9
9
9
9
9
9
9
9
9
9
9
9
9
9
9
9
9
9
9
9
9
9
9
9
9
9
9
9
9
9
9
9
9
9
9
9
9
9
9
9
9
9
9
9
9
9
9
9
9
9
9
9
9
9
9
9
9
9
9
9
9
9
9
9
9
9
9
9
9
9
9
9
9
9
9
9
9
9
9
9
9
9
9
9
9
9
9
9
9
9
9
9
9
9
9
9
9
9
9
9
9
9
9
9
9
9
9
9
9
9
9
9
9
9
9
9
9
9
9
9
9
9
9
9
9
9
9
9
9
9
9
9
9
9
9
9
9
9
9
9
9
9
9
9
9
9
9
9
9
9
9
9
9
9
9
9
9
9
9
9
9
9
9
9
9
9
9
9
9
9
9
9
9
9
9
9
9
9
9
9
9
9
9
9
9
9
9
9
9
9
9
9
9
9
9
9
9
9
9
9
9
9
9
9
9
9
9
9
9
9
9
9
9
9
9
9
9
9
9
9
9
9
9
9
9
9
9
9
9
9
9
9
9
9
9
9
9
9
9
9
9
9
9
9
9
9
9
9
9
9
9
9
9
9
9
9
9
9
9
9
9
9
9
9
9
9
9
9
9
9
9
9
9
9
9
9
9
9
9
9
9
9
9
9
9
9
9
9
9
9
9
9
9
9
9
9
9
9
9
9
9
9
9
9
9
9
9
9
9
9
9
9
9
9
9
9
9
9
9
9
9
9
9
9
9
9
9
9
9
9
9
9
9
9
9
9
9
9
9
9
9
9
9
9
9
9
9
9
9
9
9
9
9
9
9
9
9
9
9
9
9
9
9
9
9
9
9
9
9
9
9
9
9
9
9
9
9
9
9
9
9
9
9
9
9
9
9
9
9
9
9
9
9
9
9
9
9
9
9
9
9
9
9
9
9
9
9
9
9
9
9
9
9
9
9
9
9
9
9
9
9
9
9
9
9
9
9
9
9
9
9
9
9
9
9
9
9
9
9
9
9
9
9
9
9
9
9
9
9
9
9
9
9
9
9
9
9
9
9
9
9
9
9
9
9
9
9
9
9
9
9
9
9
9
9
9
9
9
9
9
9
9
9
9
9
9
9
9
9
9
9
9
9
9
9
9
9
9
9
9
9
9
9
9
9
9
9
9
9
9
9
9
9
9
9
9
9
9
9
9
9
9
9
9
9
9
9
9
9
9
9
9
9
9
9
9
9
9
9
9
9
9
9
9
9
9
9
9
9
9
9
9
9
9
9
9
9
9
9
9
9
9
9
9
9
9
9
9
9
9
9
9
9
9
9
9
9
9
9
9
9
9
9
9
9
9
9
9
9
9
9
9
9
9
9
9
9
9
9
9
9
9
9
9
9
9
9
9
9
9
9
9
9
9
9
9
9
9
9
9
9
9
9
9
9
9
9
9
9
9
9
9
9
9
9
9
9
9
9
9
9
9
9
9
9
9
9
9
9
9
9
9
9
9
9
9
9
9
9
9
9
9
9
9
9
9
9
9
9
9
9
9
9
9
9
9
9
9
9
9
9
9
9
9
9
9
9
9
9
9
9
9
9
9
9
9
9
9
9
9
9
9
9
9
9
9
9
9
9
9
9
9
9
9
9
9
9
9
9
9
9
9
9
9
9
9
9
9
9
9
9
9
9
9
9
9
9
9
9
9
9
9
9
9
9
9
9
9
9
9
9
9
9
9
9
9
9
9
9
9
9
9
9
9
9
9
9
9
9
9
9
9
9
9
9
9
9
9
9
9
9
9
9
9
9
9
9
9
9
9
9
9
9
9
9
9
9
9
9
9
9
9
9
9
9
9
9
9
9
9
9
9
9
9
9
9
9
9
9
9
9
9
9
9
9
9
9
9
9
9
9
9
9
9
9
9
9
9
9
9
9
9
9
9
9
9
9
9
9
9
9
9
9
9
9
9
9
9
9
9
9
9
9
9
9
9
9
9
9
9
9
9
9
9
9
9
9
9
9
9
9
9
9
9
9
9
9
9
9
9
9
9
9
9
9
9
9
9
9
9
9
9
9
9
9
9
9
9
9
9
9
9
9
9
9
9
9
9
9
9
9
9
9
9
9
9
9
9
9
9
9
9
9
9
9
9
9
9
9
9
9
9
9
9
9
9
9
9
9
9
9
9
9
9
9
9
9
9
9
9

POINT_DATA 1111
VECTORS displacement float
0 0 0
0 0 0
-0.156271 0.0926015 -0.138458
-0.182712 0.07726 -0.168619
-0.0320782 0.180934 -0.0387551
-0.200423 0.0120497 -0.146384
0 0 0
-0.381468 -0.122621 -0.127843
0 0 0
-0.658911 -0.288008 -0.0457385
-0.430636 -0.131503 0.115837
-0.90633 -0.290128 0.135173
-0.447407 -0.130188 0.252801
-0.989038 -0.330698 0.336075
-0.332 -0.0199409 0.275871
-0.880264 -0.326067 0.483244
0 0 0
-0.698551 -0.355737 0.561599
0 0 0
-0.514579 -0.329467 0.531551
0 0 0
-0.400036 -0.274015 0.524907
0 0 0
-0.344054 -0.261052 0.523693
0 0 0
-0.319968 -0.271828 0.579303
-0.0869497 -0.0599634 0.189535
-0.236441 -0.250858 0.646584
0 0 0
-0.136251 -0.234176 0.691378
0 0 0
-0.0431191 -0.156449 0.667834
0 0 0
0.0172872 -0.0488813 0.660174
0.0568517 0.167401 0.318358
0.0790259 0.08328 0.623181
0.0848636 0.226464 0.338087
0.157104 0.161966 0.587236
0.101097 0.18744 0.256071
0.219281 0.153344 0.484002
0 0 0
0.252073 0.0748836 0.37971
0 0 0
0.265978 0.0515544 0.26343
0 0 0
0.282554 0.0583616 0.144428
0 0 0
0.269524 0.0790567 0.0572268
0 0 0
0.265068 0.0736913 0.0149869
0 0 0
0.290807 0.00126307 0.0639028
0 0 0
0.433785 -0.0757506 0.0580325
0 0 0
0.581097 -0.150531 -0.0901404
0 0 0
0.648829 -0.202915 -0.251942
0 0 0
0.655541 -0.237549 -0.387297
0 0 0
0.616597 -0.254555 -0.48265
0 0 0
0.573774 -0.275053 -0.547372
0 0 0
0.526529 -0.282213 -0.604008
0 0 0
0.465198 -0.304345 -0.661702
0 0 0
0.398977 -0.296778 -0.716932
0 0 0
0.324452 -0.310444 -0.743325
0 0 0
0.258978 -0.320391 -0.778835
0 0 0
0.161536 -0.314608 -0.792665
0 0 0
0.0269453 -0.304785 -0.735781
0 0 0
-0.100601 -0.235643 -0.611432
0 0 0
-0.18012 -0.132625 -0.431468
0 0 0
-0.198846 -0.0271223 -0.266683
0 0 0
0 0 0
-0.13817 -0.141835 -0.890126
-0.223104 -0.0960349 -0.754696
0 0 0
-0.0210283 -0.130978 -0.979278
0 0 0
0.0916129 -0.149657 -1.05106
0 0 0
0.176204 -0.12821 -1.08161
0 0 0
0.249494 -0.0724766 -1.09195
0 0 0
0.334562 -0.0619711 -1.09804
0 0 0
0.422628 -0.0354253 -1.07236
0 0 0
0.501342 -0.0153072 -1.01225
0 0 0
0.574649 -0.0310363 -0.920069
0 0 0
0.609183 -0.0293088 -0.799153
0 0 0
0.616408 -0.0844117 -0.718512
0 0 0
0.589966 -0.0682622 -0.609711
0 0 0
0.57201 -0.0549133 -0.524236
0 0 0
0.558734 -0.0191324 -0.420143
0 0 0
0.57511 -0.0363681 -0.327876
0 0 0
0.546845 -0.0402363 -0.195509
0 0 0
0.459665 -0.0478317 -0.0724145
0 0 0
0.373469 -0.0507604 -0.00919675
0 0 0
0.366169 -0.0495115 0.0325656
0 0 0
0.430644 -0.0345858 0.0977492
0 0 0
0.538897 -0.0277598 0.222081
0 0 0
0.642178 0.00906196 0.365508
0 0 0
0.771647 0.083859 0.544316
0 0 0
0.952763 0.145224 0.908848
0.257708 -0.148467 0.461884
0.669779 0.0557772 0.858837
0.24752 -0.132728 0.423546
0.509553 0.0679741 0.906051
0 0 0
0.391267 0.0880103 0.898493
0 0 0
0.314416 0.0450783 0.795226
0 0 0
0.256686 -0.00857554 0.734749
0 0 0
0.171005 -0.0697023 0.735643
-0.0286837 -0.35515 0.452879
0.0604063 -0.156636 0.696123
0.00209135 -0.387752 0.412209
-0.0862855 -0.167563 0.631087
0 0 0
-0.181292 -0.108361 0.530465
0 0 0
-0.101181 -0.00626216 0.430097
0 0 0
-0.132849 0.0299801 0.553427
0 0 0
-0.309604 0.0756119 0.619407
0 0 0
-0.481284 0.0837575 0.635914
0 0 0
-0.624758 0.0559314 0.628676
0 0 0
-0.741001 0.000303666 0.597398
0 0 0
-0.809185 -0.0540429 0.546172
0 0 0
-0.832916 -0.0912942 0.506748
0 0 0
-0.853093 -0.0942399 0.464903
0 0 0
-0.869603 -0.0838985 0.395341
0 0 0
-0.857498 -0.0599889 0.328252
0 0 0
-0.793227 -0.073626 0.22296
0 0 0
-0.700807 -0.0847927 0.0837708
0 0 0
-0.592802 -0.0975815 0.0123377
0 0 0
-0.531727 -0.117612 -0.0115013
0 0 0
-0.508681 -0.112752 -0.0425618
0 0 0
-0.505886 -0.10617 -0.112652
0 0 0
-0.475947 -0.0703379 -0.192569
0 0 0
-0.454492 -0.0980166 -0.283626
0 0 0
-0.40561 -0.109341 -0.36642
0 0 0
-0.356253 -0.123207 -0.433022
0 0 0
-0.299778 -0.139734 -0.504759
0 0 0
-0.271434 -0.132326 -0.558165
0 0 0
-0.259371 -0.132492 -0.650066
-0.307484 -0.0141422 -0.222823
-0.232887 0.123729 -0.199774
-0.546015 -0.21997 -0.222722
-0.993126 -0.449403 -0.0793528
-1.26882 -0.520524 0.197994
-1.35686 -0.548037 0.446266
-1.30306 -0.548008 0.670643
-1.12008 -0.525292 0.826067
-0.877875 -0.486492 0.896964
-0.667172 -0.428138 0.895674
-0.561628 -0.376871 0.887321
-0.507218 -0.354797 0.94275
-0.381722 -0.329774 1.03887
-0.20294 -0.268535 1.06922
-0.0510752 -0.173909 1.01624
0.0740189 -0.0604733 0.92308
0.157755 0.0333962 0.816697
0.210492 0.0838058 0.725942
0.272419 0.0710053 0.638304
0.339235 0.0298981 0.53171
0.409372 0.00640349 0.392788
0.443365 0.015133 0.210683
0.401231 0.0482915 0.0644095
0.37411 0.0511545 0.074724
0.511655 -0.0353297 0.144106
0.754841 -0.138095 0.0563753
0.944663 -0.218948 -0.159622
1.04301 -0.277117 -0.394596
1.06258 -0.315359 -0.604284
1.01617 -0.341018 -0.773636
0.947087 -0.368274 -0.883866
0.87886 -0.381724 -0.989821
0.776935 -0.402812 -1.0968
0.65585 -0.417577 -1.17427
0.532359 -0.434717 -1.22574
0.411926 -0.438188 -1.27698
0.255117 -0.422145 -1.29965
0.071052 -0.398672 -1.21708
-0.116411 -0.29416 -0.983289
-0.263195 -0.161828 -0.675929
-0.332973 -0.0255044 -0.394979
-0.290376 0.114609 -0.226933
-0.101018 -0.264781 -1.5198
-0.265035 -0.247454 -1.35569
0.0673904 -0.286711 -1.63748
0.237626 -0.295138 -1.71808
0.392911 -0.277518 -1.76887
0.554505 -0.239146 -1.78768
0.734171 -0.195159 -1.73617
0.877191 -0.162614 -1.61209
0.976357 -0.168424 -1.43979
1.03051 -0.150457 -1.21817
1.01504 -0.144744 -1.01403
0.971342 -0.137292 -0.846402
0.918958 -0.104913 -0.6994
0.884811 -0.0685973 -0.570299
0.872083 -0.0566338 -0.421307
0.817377 -0.0574695 -0.236403
0.692429 -0.0678366 -0.0815421
0.605105 -0.0739305 -0.013504
0.607911 -0.079337 0.042363
0.69113 -0.0782905 0.12091
0.823783 -0.0585831 0.257059
0.987489 -0.00363351 0.425295
1.16662 0.0517618 0.702533
1.31238 0.0789975 1.07304
0.767079 0.147481 1.29725
0.873106 0.127717 1.19537
0.587804 0.110852 1.3174
0.401095 0.0577383 1.23079
0.274419 -0.0212068 1.11314
0.154715 -0.0801539 1.00967
0.0294919 -0.0967479 0.902954
-0.0892416 -0.0939068 0.807776
-0.184958 -0.0722585 0.752
-0.162131 -0.0138893 0.739103
-0.247068 0.0417286 0.876701
-0.46332 0.0748482 0.984901
-0.709647 0.0600028 1.02776
-0.914083 0.020394 0.999412
-1.07668 -0.0742374 0.924787
-1.14862 -0.164652 0.833025
-1.16311 -0.209611 0.788755
-1.20922 -0.192559 0.750115
-1.28687 -0.158169 0.648068
-1.3169 -0.142281 0.480106
-1.24811 -0.139696 0.26958
-1.09482 -0.15917 0.0679854
-0.907513 -0.164488 -0.0383015
-0.789664 -0.179011 -0.0622602
-0.758342 -0.187026 -0.0877821
-0.75947 -0.184805 -0.168049
-0.737959 -0.174159 -0.285783
-0.695803 -0.192304 -0.408763
-0.624818 -0.204551 -0.51873
-0.554826 -0.217826 -0.607825
-0.48922 -0.240226 -0.70318
-0.468183 -0.248019 -0.803822
-0.450687 -0.24428 -0.970762
-0.385294 -0.224405 -1.15834
1.13093 0.127098 1.32636
1.39369 0.0994588 1.41825
-1.56754 -0.694404 0.308846
-1.40312 -0.652288 0.0843467
-1.63574 -0.717548 0.575032
-1.56898 -0.698967 0.826547
-1.39206 -0.641715 1.00797
-1.13593 -0.569389 1.11253
-0.873236 -0.49948 1.13668
-0.713303 -0.427716 1.12158
-0.635437 -0.381484 1.16168
-0.483022 -0.336999 1.25234
-0.246417 -0.262712 1.28388
-0.0310957 -0.164324 1.19475
0.115576 -0.0650835 1.05956
0.19688 0.00446743 0.914716
0.242268 0.0152416 0.806866
0.314715 -0.0207753 0.724222
0.409508 -0.0709347 0.621917
0.495722 -0.0995537 0.472584
0.535189 -0.0917875 0.273001
0.495132 -0.0567263 0.101907
0.437285 -0.0167657 0.0717094
0.991877 -0.179595 -0.0327627
0.756411 -0.0994879 0.115846
1.1787 -0.25564 -0.273005
1.2782 -0.310815 -0.529485
1.29857 -0.347896 -0.76015
1.25375 -0.380438 -0.955168
1.17643 -0.411212 -1.10312
1.0925 -0.440111 -1.23008
0.977484 -0.472291 -1.35511
0.835349 -0.49812 -1.45607
0.687241 -0.521673 -1.52684
0.531915 -0.532372 -1.58338
0.35094 -0.527855 -1.60487
0.101431 -0.533285 -1.52673
-0.164797 -0.415375 -1.15681
-0.352056 -0.25841 -0.745245
-0.396517 -0.0677955 -0.406975
-0.3132 0.0825147 -0.210896
-0.235396 0.0813423 -0.199769
-0.341592 -0.0585082 -0.224893
0.555803 -0.0316441 0.161404
0.479306 -0.0183233 0.132049
1.0335 0.147117 1.57199
1.32325 0.0972882 1.72241
0.771841 0.148139 1.65951
0.442978 0.100016 1.53297
0.218424 0.00382218 1.32353
0.083143 -0.0741886 1.1301
0.00156431 -0.0979939 1.00134
-0.0855894 -0.0871932 0.91123
-0.145633 -0.0673372 0.859097
-0.336198 -0.0018714 1.0632
-0.211431 -0.0300267 0.925499
-0.549723 0.0153231 1.1742
-0.787077 -0.00700987 1.22292
-1.01285 -0.0626493 1.19408
-1.18825 -0.166789 1.08644
-1.24884 -0.267752 0.989155
-1.26554 -0.278286 0.97629
-1.37596 -0.234096 0.955755
-1.54499 -0.226874 0.835241
-1.6228 -0.223577 0.607418
-1.54075 -0.21365 0.320701
-1.33133 -0.208683 0.0597363
-1.09571 -0.194719 -0.0867636
-0.924008 -0.214313 -0.103764
-0.864876 -0.235769 -0.111515
-0.8642 -0.248476 -0.180606
-0.839146 -0.253974 -0.309272
-0.781745 -0.267872 -0.431724
-0.709743 -0.279818 -0.539252
-0.635191 -0.29161 -0.640301
-0.561723 -0.31573 -0.74945
-0.551938 -0.336465 -0.859028
-0.552403 -0.348276 -1.07971
-0.476845 -0.34084 -1.34902
-0.332135 -0.361153 -1.59311
-0.142509 -0.389758 -1.79403
0.0528573 -0.414542 -1.94946
0.254547 -0.42102 -2.06716
0.4637 -0.408536 -2.16258
0.689215 -0.370522 -2.20375
0.930902 -0.327573 -2.14493
1.12199 -0.295056 -1.9746
1.24036 -0.26976 -1.7225
1.29018 -0.244157 -1.42075
1.25621 -0.221867 -1.12613
1.17174 -0.206887 -0.90071
1.0917 -0.173663 -0.735249
1.03797 -0.127533 -0.604801
1.00325 -0.100138 -0.439982
0.924162 -0.0956563 -0.225541
0.762831 -0.101195 -0.0660445
0.685593 -0.111305 -0.012126
0.689516 -0.114957 0.0493107
0.777918 -0.109094 0.109344
0.939209 -0.0804795 0.242669
1.13455 -0.0279615 0.411757
1.31879 0.00869758 0.679415
1.47899 0.0322588 1.00168
1.57624 0.0389282 1.33544
1.57297 0.0120214 1.67223
1.02726 0.0759489 1.95305
1.44512 -0.0443194 1.93306
-0.189092 -0.0552621 0.845296
-0.179594 -0.053889 0.862913
0.746071 -0.0633612 0.122929
0.594903 -0.0295918 0.156584
0.944234 -0.123915 0.0253023
1.14333 -0.192332 -0.143038
1.30081 -0.260439 -0.370295
1.38992 -0.31976 -0.609551
1.41134 -0.365899 -0.833268
1.37791 -0.402301 -1.03781
1.30649 -0.439109 -1.20867
1.22295 -0.477214 -1.35714
1.10486 -0.514468 -1.50728
0.955721 -0.555728 -1.62247
0.798151 -0.586756 -1.71048
0.60928 -0.601076 -1.77206
0.420892 -0.602165 -1.78628
0.211331 -0.597254 -1.74698
-0.440809 -0.293547 -0.68447
-0.302612 -0.452186 -1.10018
-0.439327 -0.100436 -0.343445
-0.312652 0.0251911 -0.186689
-0.240772 0.0105717 -0.176067
-0.337194 -0.118447 -0.224901
-1.82227 -0.789814 0.433615
-1.68019 -0.746136 0.215622
-1.87469 -0.803315 0.702491
-1.79049 -0.781185 0.952872
-1.60019 -0.714292 1.13226
-1.33956 -0.618577 1.23904
-1.05782 -0.523208 1.27348
-0.841821 -0.443452 1.26067
-0.719153 -0.381995 1.27443
-0.549202 -0.326257 1.34017
-0.251414 -0.229016 1.3604
0.0127483 -0.123136 1.23729
0.149873 -0.0437514 1.08504
0.20568 -0.0225915 0.948886
0.248532 -0.0662566 0.863009
0.342861 -0.143419 0.797839
0.467373 -0.213549 0.700368
0.571835 -0.252617 0.550525
0.623812 -0.239593 0.364659
0.605869 -0.197762 0.178088
0.542115 -0.146491 0.0763607
0.513531 -0.0981081 0.0707943
0.539893 -0.0783797 0.100424
0.690378 -0.0343511 0.126174
0.602959 -0.0658976 0.108366
0.852234 -0.0554892 0.0692669
-1.26247 -0.620042 -0.0679456
-1.53086 -0.686811 0.0624604
-1.19475 -0.587085 -0.150817
-1.41221 -0.638792 -0.0570593
-0.146017 -0.547668 -1.44072
-0.0163192 -0.577156 -1.66394
0.480681 0.0778408 1.77388
0.165603 0.0122842 1.47784
0.00270256 -0.0598881 1.21711
-0.0532282 -0.0960296 1.04375
-0.091772 -0.0903408 0.949111
-0.127122 -0.0721181 0.905933
-0.153586 -0.0543062 0.898087
-0.198064 -0.0473483 0.896667
-0.174002 -0.0487235 0.915865
-0.206355 -0.0566042 0.917354
-0.255303 -0.0646533 1.00943
-0.366979 -0.0720358 1.13733
-0.558057 -0.0799585 1.24021
-0.770244 -0.115128 1.29262
-0.975195 -0.174278 1.26983
-1.13497 -0.263279 1.16667
-1.18227 -0.32112 1.09676
-1.25674 -0.292633 1.13161
-1.47315 -0.264957 1.11805
-1.71334 -0.287922 0.968306
-1.82484 -0.308586 0.70358
-1.74536 -0.296097 0.375037
-1.50756 -0.267918 0.0781834
-1.23509 -0.231982 -0.097109
-1.01992 -0.236692 -0.128776
-0.919385 -0.257991 -0.136521
-0.893922 -0.282507 -0.186514
-0.852979 -0.299863 -0.302833
-0.785925 -0.316297 -0.412142
-0.717192 -0.333342 -0.50325
-0.651896 -0.348305 -0.596002
-0.584435 -0.370682 -0.695134
-0.575266 -0.39899 -0.797807
-0.595704 -0.442321 -1.03016
-0.507968 -0.442594 -1.38535
-0.360475 -0.464415 -1.6573
-0.175314 -0.488348 -1.86678
0.0213507 -0.508702 -2.04166
0.239696 -0.512712 -2.19561
0.480889 -0.500332 -2.32185
0.753501 -0.478565 -2.37794
1.02954 -0.455748 -2.30708
1.24512 -0.429024 -2.10221
1.37752 -0.391716 -1.79523
1.41443 -0.352907 -1.44904
1.36685 -0.309079 -1.12498
1.26751 -0.266208 -0.872576
1.16997 -0.223614 -0.705787
1.1007 -0.175172 -0.590123
1.05728 -0.138911 -0.441352
0.999373 -0.12357 -0.306061
0.697341 -0.133151 -0.00344913
0.745214 -0.126895 -0.0330745
0.716651 -0.132467 0.046718
0.823663 -0.116362 0.104997
1.01803 -0.0822776 0.24175
1.22393 -0.0404165 0.422023
1.36047 -0.011939 0.617977
1.49836 -0.00829194 0.802939
1.63487 -0.0257894 1.10288
1.69822 -0.0710504 1.44235
1.64967 -0.137216 1.72131
1.2352 -0.144278 2.05549
1.49961 -0.217899 1.88666
0.848505 -0.065425 2.05168
0.402505 -0.0229971 1.86178
0.0959752 -0.0397098 1.55934
-0.0505736 -0.0725058 1.25025
-0.092901 -0.0927328 1.05591
-0.106669 -0.0875253 0.963614
1.68002 -0.138123 1.07189
1.54655 -0.0768516 0.730596
1.70033 -0.210769 1.37428
1.61236 -0.289031 1.57647
1.2752 -0.306989 1.92477
1.4156 -0.376741 1.65981
0.987356 -0.248625 2.04488
0.616957 -0.191411 2.00553
0.246513 -0.139391 1.81063
-0.0340268 -0.109135 1.52607
-0.109985 -0.0980087 1.21562
-0.123576 -0.0941456 1.03491
-0.111755 -0.0833135 0.955471
0.852312 -0.120585 -0.0994053
0.944923 -0.122422 -0.188355
1.03503 -0.103093 -0.034043
1.21096 -0.165759 -0.19655
1.35246 -0.23431 -0.394661
1.43978 -0.299284 -0.616256
1.46626 -0.356123 -0.840141
1.44558 -0.402561 -1.04662
1.39008 -0.446651 -1.23914
1.30553 -0.487459 -1.42132
1.1905 -0.528947 -1.58808
1.05278 -0.580991 -1.72036
0.885577 -0.626236 -1.82931
0.679817 -0.644707 -1.89787
0.470917 -0.636166 -1.90898
0.262804 -0.612412 -1.86509
0.0715422 -0.581001 -1.79053
-0.209469 -0.539426 -1.53146
-0.0990201 -0.54936 -1.68438
-0.346919 -0.513185 -1.29056
-0.459173 -0.43049 -0.97033
-0.49454 -0.287783 -0.606347
-0.439261 -0.125272 -0.301769
-0.30375 -0.0494359 -0.188268
-0.269966 -0.0776412 -0.166452
-0.377476 -0.175819 -0.214534
-0.55771 -0.300018 -0.280743
-0.58867 -0.3139 -0.280758
-0.88751 -0.467582 -0.238709
-0.902891 -0.456892 -0.281798
-1.20934 -0.560865 -0.204921
-1.47867 -0.634211 -0.0794548
-1.69358 -0.700349 0.0952363
-1.88631 -0.766555 0.304048
-2.02602 -0.811541 0.539164
-2.06998 -0.82424 0.799393
-1.9864 -0.803115 1.03988
-1.78646 -0.743166 1.22017
-1.51081 -0.643995 1.32059
-1.20917 -0.534814 1.34536
-0.965705 -0.447694 1.32664
-0.782292 -0.380683 1.32566
-0.6099 -0.31799 1.35099
-0.399679 -0.241304 1.35038
0.151006 -0.0270798 1.0587
0.0735624 -0.059535 1.17532
0.181567 -0.0649989 0.971925
0.237014 -0.170531 0.948828
0.374408 -0.292423 0.925855
0.545075 -0.378312 0.844723
0.679811 -0.420651 0.698951
0.747227 -0.394062 0.514682
0.756035 -0.350213 0.315224
0.728206 -0.297771 0.16796
0.68308 -0.239502 0.0833924
0.646231 -0.203064 0.0468651
0.634525 -0.157354 0.0596436
0.658779 -0.0597743 0.0858099
0.650811 -0.108754 0.0665243
0.743436 -0.0297943 0.081036
0.884479 -0.0283102 0.0373994
-0.0702085 -0.12248 1.26585
-0.213698 -0.157017 1.28824
-0.14201 -0.0631362 0.933706
-0.128587 -0.0666168 0.927047
-0.194269 -0.0538614 0.940376
-0.160786 -0.0667743 0.947254
-0.219748 -0.0527557 0.934633
-0.240886 -0.0669472 0.955972
-0.283196 -0.0929966 1.02313
-0.358348 -0.128537 1.12866
-0.498418 -0.159445 1.21985
-0.672966 -0.206934 1.27635
-0.846275 -0.255114 1.26572
-0.983272 -0.309263 1.20543
-1.06169 -0.317082 1.19334
-1.22722 -0.27908 1.26828
-1.52584 -0.287399 1.26187
-1.83448 -0.347113 1.08081
-1.97316 -0.380576 0.770209
-1.88902 -0.365733 0.409988
-1.64002 -0.318091 0.0891831
-1.35251 -0.262702 -0.106901
-1.107 -0.258771 -0.143185
-0.958071 -0.269193 -0.165272
-0.897849 -0.293469 -0.201384
-0.828012 -0.316231 -0.296429
-0.751003 -0.339941 -0.376555
-0.680539 -0.363737 -0.443436
-0.625469 -0.384898 -0.51223
-0.575984 -0.408968 -0.58871
-0.574354 -0.441087 -0.654808
-0.60289 -0.475285 -0.756067
-0.378394 -0.537203 -1.63007
-0.506684 -0.522308 -1.38511
-0.205839 -0.551532 -1.83921
-0.0164032 -0.566252 -2.02295
0.202663 -0.574745 -2.19614
0.46941 -0.577533 -2.33982
0.770557 -0.57529 -2.39279
1.06639 -0.557858 -2.29911
1.29653 -0.52627 -2.05724
1.43096 -0.48606 -1.71456
1.45077 -0.437319 -1.34997
1.38062 -0.368338 -1.05019
1.28439 -0.294368 -0.815288
1.19424 -0.238359 -0.657586
1.12545 -0.191795 -0.54487
1.07867 -0.156877 -0.422797
1.03375 -0.138011 -0.337352
1.015 -0.131898 -0.273667
0.881761 -0.116118 -0.0954351
0.985838 -0.115567 -0.190231
0.786661 -0.123118 -0.0379701
0.712729 -0.132015 -0.0109991
0.682755 -0.138273 0.00521562
0.716276 -0.134123 0.0337761
0.860561 -0.112251 0.0978577
1.11652 -0.0793453 0.281802
1.37366 -0.0411962 0.521076
-0.594679 -0.51785 -1.1058
-0.613924 -0.502694 -0.847264
-0.117549 -0.0800521 0.947882
-0.131451 -0.0795906 0.944501
-0.188923 -0.0725857 0.960581
-0.153199 -0.074028 0.953942
-0.221063 -0.0656083 0.959945
-0.244352 -0.0671977 0.961286
-0.255624 -0.0779089 0.97249
-0.28083 -0.104205 1.00719
-0.320005 -0.143068 1.07619
-0.415592 -0.176047 1.1499
-0.550506 -0.21823 1.20594
-0.699231 -0.253031 1.22326
-0.833911 -0.278686 1.22666
-0.973685 -0.279241 1.25887
-1.19492 -0.278991 1.35817
-1.5359 -0.326976 1.37586
-1.93714 -0.427325 1.19764
-2.08464 -0.444351 0.802921
-1.98788 -0.425589 0.423505
-1.73474 -0.3578 0.0892002
-1.44694 -0.289078 -0.120509
-1.17703 -0.270814 -0.17963
-0.992509 -0.273576 -0.199723
-0.894012 -0.294713 -0.220574
-0.79875 -0.31754 -0.291472
-0.703416 -0.342785 -0.347709
-0.626377 -0.369518 -0.388097
-0.577268 -0.395869 -0.426707
-0.549251 -0.421931 -0.472382
-0.554968 -0.451674 -0.512776
-0.584219 -0.472533 -0.572542
-0.607245 -0.486119 -0.646387
-0.630068 -0.522326 -0.909952
-0.624053 -0.494421 -0.714859
-0.582955 -0.534181 -1.13158
-0.493465 -0.548959 -1.36461
-0.389753 -0.568841 -1.57753
-0.234051 -0.577925 -1.7741
-0.0540718 -0.594265 -1.95698
0.164696 -0.611159 -2.13419
0.432739 -0.626713 -2.27729
0.729624 -0.627436 -2.33027
1.02571 -0.601417 -2.24375
1.28237 -0.548858 -1.9725
1.42506 -0.506039 -1.58371
1.40789 -0.448593 -1.21652
1.32868 -0.368591 -0.970282
1.262 -0.283647 -0.769377
1.19703 -0.222736 -0.61515
1.13716 -0.179787 -0.496435
1.07959 -0.150328 -0.370818
1.07714 -0.130934 -0.317626
0.946729 -0.0910957 -0.108171
1.0732 -0.108474 -0.252304
0.808318 -0.0984754 -0.016258
0.719546 -0.116785 0.00926957
0.691233 -0.126462 0.00504253
0.666747 -0.127656 0.00500815
0.706669 -0.124067 0.016081
0.865451 -0.114887 0.0838715
1.22596 -0.123859 0.355766
1.05148 -0.0614895 -0.0555742
1.21707 -0.112791 -0.191042
1.35482 -0.182891 -0.373051
1.44586 -0.249598 -0.582276
1.47946 -0.310643 -0.800747
1.47047 -0.363575 -1.00988
1.4252 -0.414176 -1.21541
1.34228 -0.456105 -1.41749
1.24588 -0.4991 -1.5914
1.1312 -0.564918 -1.74913
0.962921 -0.626051 -1.89206
0.750511 -0.654898 -1.97631
0.532092 -0.64797 -1.99083
0.332203 -0.621266 -1.94907
0.157602 -0.592197 -1.87798
0.0323242 -0.585035 -1.80544
-0.24756 -0.545868 -1.55292
-0.055399 -0.621278 -1.76059
-0.359414 -0.504302 -1.37573
-0.450072 -0.468464 -1.13876
-0.533999 -0.397705 -0.835863
-0.525602 -0.282293 -0.516657
-0.427957 -0.166643 -0.270456
-0.316072 -0.125001 -0.174478
-0.303599 -0.151145 -0.160283
-0.405564 -0.221961 -0.220726
-0.625141 -0.319682 -0.292952
-0.924144 -0.423966 -0.316417
-1.24294 -0.512181 -0.248987
-1.5327 -0.585562 -0.116895
-1.79291 -0.659586 0.0861819
-2.01051 -0.728883 0.323799
-2.15695 -0.782404 0.583389
-2.19801 -0.80021 0.853821
-2.1114 -0.784131 1.09203
-1.90264 -0.734319 1.27485
-1.6055 -0.648773 1.3767
-1.28723 -0.535587 1.39022
-1.03513 -0.432848 1.35135
-0.82944 -0.360042 1.3354
-0.640659 -0.291999 1.3358
-0.469818 -0.219829 1.31431
-0.313827 -0.148785 1.26395
-0.0890048 -0.0822591 1.17996
-0.188386 -0.0891805 1.17916
0.00555281 -0.0575279 1.14814
0.0768708 -0.0312073 1.09329
0.106104 -0.0337475 1.03272
0.113439 -0.137502 1.03464
0.218788 -0.289173 1.10792
0.433353 -0.418569 1.14608
0.668776 -0.49826 1.09081
0.844985 -0.528859 0.954835
0.922699 -0.494445 0.731293
0.938308 -0.44621 0.511824
0.947356 -0.399625 0.353907
0.923602 -0.352815 0.230788
0.865838 -0.303376 0.13566
0.789719 -0.245655 0.0822199
0.720112 -0.169862 0.0618817
0.672767 -0.0621633 0.0536072
0.677691 -0.103523 0.0359211
0.691141 -0.0502135 0.0592725
0.749441 -0.0184468 0.0594996
0.865465 0.00205598 0.0403638
-0.27422 -0.0917898 0.98277
-0.289523 -0.122461 1.02227
-0.352504 -0.147251 1.08448
-0.467085 -0.180632 1.1453
-0.605734 -0.211798 1.18771
-0.740773 -0.2331 1.23838
-0.90808 -0.244387 1.30517
-1.14124 -0.266801 1.42116
-1.45495 -0.339304 1.45823
-1.77775 -0.447874 1.39442
-2.04615 -0.486174 0.409186
-2.15757 -0.52453 0.746937
-1.80595 -0.404902 0.0910176
-1.518 -0.330201 -0.108015
-1.24309 -0.288202 -0.203085
-1.02543 -0.274374 -0.2427
-0.894467 -0.293204 -0.241347
-0.774076 -0.316503 -0.285425
-0.661984 -0.337811 -0.322266
-0.578361 -0.36232 -0.338316
-0.534805 -0.383792 -0.356583
-0.513544 -0.409962 -0.381956
-0.517353 -0.429386 -0.409288
-0.550613 -0.451423 -0.448968
-0.569508 -0.4541 -0.508359
-0.587335 -0.45352 -0.564807
-0.623276 -0.4942 -0.791535
-0.6064 -0.454534 -0.626095
-0.600966 -0.515954 -0.97514
-0.552488 -0.531902 -1.16765
-0.491738 -0.552662 -1.34914
-0.400667 -0.566631 -1.52232
-0.264889 -0.580455 -1.698
-0.100685 -0.6025 -1.8684
0.107756 -0.627851 -2.04043
0.352117 -0.64754 -2.18528
0.634331 -0.64455 -2.2639
0.937535 -0.62053 -2.21408
1.22079 -0.569313 -1.93083
1.27334 -0.332141 -0.927443
1.32519 -0.405919 -1.14228
1.24215 -0.257397 -0.747347
1.2007 -0.198757 -0.590133
1.14612 -0.159665 -0.457517
-2.11304 -0.536013 1.05045
-2.02749 -0.55734 1.24168
1.16659 -0.139763 -0.415119
1.07385 -0.0805514 -0.18958
1.19753 -0.109832 -0.352176
0.906673 -0.0578584 -0.0380676
0.702346 -0.0635141 0.0327475
0.657566 -0.108075 0.00521692
1.02089 -0.0203103 -0.0397335
1.18909 -0.0621255 -0.158658
1.326 -0.129177 -0.331098
1.4158 -0.192667 -0.536373
1.45178 -0.246548 -0.742017
1.45289 -0.298127 -0.944772
1.41882 -0.350184 -1.14998
1.34031 -0.394454 -1.35637
1.26459 -0.444039 -1.53665
1.18 -0.525477 -1.72022
1.02541 -0.600406 -1.90076
0.817539 -0.639856 -2.01424
0.587084 -0.642621 -2.03991
0.384241 -0.625209 -1.99611
0.244772 -0.610329 -1.93552
0.202483 -0.626286 -1.92735
0.205175 -0.658391 -1.96971
-0.362953 -0.556994 -1.40568
-0.227695 -0.603291 -1.60493
-0.475955 -0.49413 -1.20881
-0.527742 -0.440924 -0.989432
-0.571664 -0.3769 -0.722113
-0.534381 -0.297557 -0.454481
-0.438362 -0.222793 -0.243571
-0.348165 -0.196933 -0.167889
-0.336319 -0.214028 -0.161902
-0.422372 -0.260736 -0.23137
-0.645328 -0.312756 -0.311847
-0.939817 -0.376005 -0.339976
-1.24583 -0.436669 -0.295019
-1.54757 -0.502284 -0.174053
-1.82497 -0.576228 0.0274632
-2.05721 -0.648049 0.27845
-2.2112 -0.710579 0.566477
-2.25176 -0.740991 0.856597
-2.16683 -0.730878 1.10606
-1.95002 -0.676732 1.30171
-1.63725 -0.6006 1.41051
-1.30694 -0.499369 1.4242
-1.03609 -0.390036 1.37684
-0.837669 -0.312924 1.33027
-0.649138 -0.245507 1.31418
-0.49058 -0.176916 1.2776
-0.366326 -0.11851 1.21833
-0.261152 -0.0761778 1.14878
-0.113566 -0.0528077 1.07708
-0.184255 -0.047354 1.06904
-0.0417051 -0.0441599 1.06504
0.0138928 -0.0348893 1.04883
0.052281 -0.0307364 1.04178
0.0285885 -0.0604448 1.01329
0.00162645 -0.235386 1.16835
0.243445 -0.404285 1.36216
0.540055 -0.49589 1.41169
0.812279 -0.530191 1.36365
1.10765 -0.530494 1.27689
1.12976 -0.502316 0.921609
1.08563 -0.477471 0.677011
1.15553 -0.44273 0.604981
1.18373 -0.409252 0.464599
1.12258 -0.346917 0.333498
1.00205 -0.272143 0.213887
0.856312 -0.195662 0.114526
0.731614 -0.128992 0.040507
0.671023 -0.0473957 0.025039
0.655208 -0.0837552 0.00404375
0.713829 -0.0211826 0.0471675
1.50555 -0.202573 0.676103
1.60488 -0.279443 0.968994
1.56718 -0.361522 1.19431
1.40671 -0.454674 1.30242
1.15191 -0.473444 1.62574
1.00471 -0.405211 1.83065
0.715344 -0.354857 1.90197
0.374818 -0.295742 1.82415
0.0617857 -0.225453 1.62723
-0.131335 -0.155205 1.36217
-0.15885 -0.109681 1.12346
-0.130181 -0.0932357 0.98669
-0.122861 -0.084788 0.954162
-0.126106 -0.0699532 0.950472
-0.185799 -0.0570301 0.983043
-0.13854 -0.0474601 0.991522
-0.22575 -0.0704155 0.975574
-0.256222 -0.0802703 0.972186
1.13853 -0.0390629 -0.129046
0.969775 -0.00164554 -0.0116617
1.27336 -0.0963709 -0.303344
1.35951 -0.146748 -0.489465
1.38867 -0.185013 -0.664164
1.39709 -0.232946 -0.861297
1.37355 -0.282693 -1.0605
1.30726 -0.335609 -1.26269
1.26051 -0.39757 -1.44633
1.20354 -0.493759 -1.66698
1.06465 -0.575168 -1.8833
0.866838 -0.623719 -2.02099
0.629533 -0.646232 -2.06567
0.399884 -0.644638 -2.02258
0.44572 -0.676834 -2.07923
-0.136897 -0.60375 -1.76429
-0.361173 -0.576686 -1.4668
-0.288036 -0.573412 -1.60799
-0.453195 -0.554111 -1.27963
-0.524858 -0.499594 -1.07741
-0.580517 -0.444359 -0.871417
-0.587331 -0.388588 -0.656786
-0.538591 -0.336893 -0.432129
-0.455367 -0.281239 -0.245662
-0.384086 -0.256461 -0.184423
-0.370241 -0.263423 -0.175412
-0.402368 -0.275702 -0.200909
-0.938717 -0.321683 -0.341763
-0.697614 -0.304592 -0.318099
-1.21142 -0.352084 -0.320167
-1.50909 -0.407353 -0.224288
-1.79058 -0.477109 -0.0390372
-2.03414 -0.5542 0.20161
-2.19843 -0.634644 0.499092
-2.25381 -0.682008 0.803125
-2.17547 -0.673882 1.09676
-1.91408 -0.58168 1.35589
-1.27816 -0.42008 1.44092
-1.5844 -0.506613 1.44649
-1.01177 -0.33033 1.38609
-0.811471 -0.258027 1.31949
-0.633106 -0.19087 1.28522
-0.48526 -0.135008 1.2341
-0.37465 -0.0824187 1.17221
-0.298215 -0.0578714 1.10554
-0.235341 -0.0427306 1.04073
-0.52523 -0.297882 -0.278589
-0.448021 -0.302371 -0.234867
0.674731 -0.110599 -0.00120162
0.806261 -0.128614 0.0639976
1.02753 -0.178322 0.215264
1.24148 -0.249025 0.415856
1.38526 -0.33243 0.609944
1.40709 -0.406086 0.800766
1.31315 -0.473632 0.916727
-0.277182 -0.0883915 0.988315
-0.317519 -0.102219 1.05014
-0.414725 -0.131107 1.12235
-0.55121 -0.164132 1.18261
-0.698281 -0.188426 1.25153
-0.884983 -0.212563 1.33396
-1.10605 -0.250629 1.43986
-1.37205 -0.334739 1.48072
-1.63091 -0.439633 1.46516
-2.18142 -0.628294 1.01819
-2.17823 -0.588658 0.922099
-2.18968 -0.582022 0.696474
-2.0922 -0.53431 0.389872
-1.87967 -0.443985 0.0804317
-1.60435 -0.354713 -0.137241
-1.3258 -0.298068 -0.248745
-1.07284 -0.273479 -0.294912
-0.898351 -0.291085 -0.27194
-0.747654 -0.31276 -0.284312
-0.62564 -0.329135 -0.293832
-0.542485 -0.344924 -0.292613
-0.5031 -0.360093 -0.298577
-0.482095 -0.379468 -0.316587
-0.484101 -0.395466 -0.34004
-0.512949 -0.414189 -0.367671
-0.536943 -0.419506 -0.419316
-0.551122 -0.41519 -0.449362
-0.565673 -0.406831 -0.48916
-0.601031 -0.493294 -0.874053
-0.620699 -0.457895 -0.704784
-0.56285 -0.517415 -1.05466
-0.513577 -0.534202 -1.22356
-0.47175 -0.546689 -1.3449
-0.406149 -0.556533 -1.45948
0.0503348 -0.641033 -1.92131
-0.15883 -0.101333 1.00978
-0.110159 -0.0713871 0.9638
-0.0923663 -0.0452326 0.993044
-0.0512804 -0.053744 0.991668
-0.0221145 -0.0576775 1.00122
-0.0901253 -0.158097 1.10716
0.724544 -0.478149 1.65511
0.43462 -0.432313 1.65857
0.90622 -0.503423 1.5645
0.277088 -0.664731 -2.07963
0.531633 -0.673764 -2.17778
0.802055 -0.661855 -2.1688
1.02165 -0.629663 -2.03046
1.25822 -0.537008 -1.67835
1.13816 -0.586344 -1.86889
1.25992 -0.283809 -0.913789
1.27301 -0.354111 -1.10846
1.25143 -0.226076 -0.747383
1.22417 -0.176747 -0.577155
1.29318 -0.148838 -0.557857
1.22134 -0.0904786 -0.304219
1.29868 -0.124651 -0.450791
1.09212 -0.0502451 -0.138533
0.920298 -0.0205015 -0.00781009
0.123214 -0.34836 1.53252
-0.0839023 -0.237241 1.35485
-0.272381 -0.0528889 1.00857
-2.22462 -0.633855 0.735533
-2.14678 -0.579581 0.423918
-1.96334 -0.48674 0.122848
-1.70965 -0.396895 -0.107599
-1.42903 -0.332324 -0.25971
-1.14484 -0.291237 -0.332235
-0.915103 -0.290325 -0.318072
-0.724259 -0.302975 -0.30084
-0.580161 -0.31433 -0.282907
-0.499604 -0.325576 -0.258975
-0.468383 -0.33771 -0.252752
-0.454526 -0.35361 -0.264673
-0.518247 -0.385875 -0.358381
-0.521426 -0.400122 -0.358175
-0.514547 -0.535001 -1.16349
-0.568387 -0.499928 -0.97192
-0.453702 -0.550739 -1.33338
-0.327067 -0.0597244 1.07081
-0.424755 -0.0906193 1.14269
-0.560496 -0.127815 1.20846
-0.712283 -0.164002 1.28429
-0.913886 -0.214359 1.36196
-1.12566 -0.268936 1.43876
-1.3058 -0.32744 1.48351
-1.43912 -0.400805 1.47797
-1.20259 -0.329882 1.44781
-0.965374 -0.260256 1.38398
-0.76571 -0.197485 1.30981
-0.601108 -0.144328 1.24977
-0.459941 -0.0969069 1.19072
-0.360059 -0.0589997 1.1282
-0.30304 -0.0433798 1.07734
-0.599752 -0.455507 -0.796607
-0.606516 -0.418288 -0.659128
-0.590164 -0.405196 -0.561124
-0.416685 -0.305162 -0.211589
-0.464016 -0.32717 -0.259111
-0.400849 -0.299376 -0.19613
-0.410245 -0.296126 -0.20177
-0.433012 -0.31552 -0.222014
1.31685 -0.201372 -0.780109
1.30413 -0.25147 -0.967838
1.27034 -0.313602 -1.15946
1.27037 -0.395017 -1.35934
1.23185 -0.498488 -1.62659
1.10435 -0.577497 -1.86131
0.928137 -0.631131 -2.01976
0.697393 -0.667762 -2.10179
-0.438528 -0.337022 -0.24644
-0.474447 -0.357718 -0.286071
-0.427393 -0.328111 -0.225441
-0.561955 -0.269496 -0.265629
-0.915073 -0.470723 -0.199394
-0.11845 -0.0750482 0.92927
0.818384 0.0157992 0.0502426
0.751086 -0.00832018 0.0459362
-0.488737 -0.38217 -0.31767
-0.457602 -0.364492 -0.288226
-0.144233 -0.147715 1.16159
-0.526365 -0.36315 -0.362433
-0.124186 -0.0971702 1.01896
1.30965 -0.445722 -1.36862
1.37466 -0.483931 -1.47593

CELL_DATA 1061
SCALARS relative_volume float
LOOKUP_TABLE default
0
0
0
0
0
0
0
0
0
0
0
0
0
0
0
0
0
0
0
0
0
0
0
0
0
0
0
0
0
0
0
0
0
0
0
0
0
0
0
0
0
0
0
0
0
0
0
0
0
0
0
0
0
0
0
0
0
0
0
0
0
0
0
0
0
0
0
0
0
0
0
0
0
0
0
0
0
0
0
0
0
0
0
0
0
0
0
0
0
0
0
0
0
0
0
0
0
0
0
0
0
0
0
0
0
0
0
0
0
0
0
0
0
0
0
0
0
0
0
0
0
0
0
0
0
0
0
0
0
0
0
0
0
0
0
0
0
0
0
0
0
0
0
0
0
0
0
0
0
0
0
0
0
0
0
0
0
0
0
0
0
0
0
0
0
0
0
0
0
0
0
0
0
0
0
0
0
0
0
0
0
0
0
0
0
0
0
0
0
0
0
0
0
0
0
0
0
0
0
0
0
0
0
0
0
0
0
0
0
0
0
0
0
0
0
0
0
0
0
0
0
0
0
0
0
0
0
0
0
0
0
0
0
0
0
0
0
0
0
0
0
0
0
0
0
0
0
0
0
0
0
0
0
0
0
0
0
0
0
0
0
0
0
0
0
0
0
0
0
0
0
0
0
0
0
0
0
0
0
0
0
0
0
0
0
0
0
0
0
0
0
0
0
0
0
0
0
0
0
0
0
0
0
0
0
0
0
0
0
0
0
0
0
0
0
0
0
0
0
0
0
0
0
0
0
0
0
0
0
0
0
0
0
0
0
0
0
0
0
0
0
0
0
0
0
0
0
0
0
0
0
0
0
0
0
0
0
0
0
0
0
0
0
0
0
0
0
0
0
0
0
0
0
0
0
0
0
0
0
0
0
0
0
0
0
0
0
0
0
0
0
0
0
0
0
0
0
0
0
0
0
0
0
0
0
0
0
0
0
0
0
0
0
0
0
0
0
0
0
0
0
0
0
0
0
0
0
0
0
0
0
0
0
0
0
0
0
0
0
0
0
0
0
0
0
0
0
0
0
0
0
0
0
0
0
0
0
0
0
0
0
0
0
0
0
0
0
0
0
0
0
0
0
0
0
0
0
0
0
0
0
0
0
0
0
0
0
0
0
0
0
0
0
0
0
0
0
0
0
0
0
0
0
0
0
0
0
0
0
0
0
0
0
0
0
0
0
0
0
0
0
0
0
0
0
0
0
0
0
0
0
0
0
0
0
0
0
0
0
0
0
0
0
0
0
0
0
0
0
0
0
0
0
0
0
0
0
0
0
0
0
0
0
0
0
0
0
0
0
0
0
0
0
0
0
0
0
0
0
0
0
0
0
0
0
0
0
0
0
0
0
0
0
0
0
0
0
0
0
0
0
0
0
0
0
0
0
0
0
0
0
0
0
0
0
0
0
0
0
0
0
0
0
0
0
0
0
0
0
0
0
0
0
0
0
0
0
0
0
0
0
0
0
0
0
0
0
0
0
0
0
0
0
0
0
0
0
0
0
0
0
0
0
0
0
0
0
0
0
0
0
0
0
0
0
0
0
0
0
0
0
0
0
0
0
0
0
0
0
0
0
0
0
0
0
0
0
0
0
0
0
0
0
0
0
0
0
0
0
0
0
0
0
0
0
0
0
0
0
0
0
0
0
0
0
0
0
0
0
0
0
0
0
0
0
0
0
0
0
0
0
0
0
0
0
0
0
0
0
0
0
0
0
0
0
0
0
0
0
0
0
0
0
0
0
0
0
0
0
0
0
0
0
0
0
0
0
0
0
0
0
0
0
0
0
0
0
0
0
0
0
0
0
0
0
0
0
0
0
0
0
0
0
0
0
0
0
0
0
0
0
0
0
0
0
0
0
0
0
0
0
0
0
0
0
0
0
0
0
0
0
0
0
0
0
0
0
0
0
0
0
0
0
0
0
0
0
0
0
0
0
0
0
0
0
0
0
0
0
0
0
0
0
0
0
0
0
0
0
0
0
0
0
0
0
0
0
0
0
0
0
0
0
0
0
0
0
0
0
0
0
0
0
0
0
0
0
0
0
0
0
0
0
0
0
0
0
0
0
0
0
0
0
0
0
0
0
0
0
0
0
0
0
0
0
0
0
0
0
0
0
0
0
0
0
0
0
0
0
0
0
0
0
0
0
0
0
0
0
0
0
0
0
0
0
0
0
0
0
0
0
0
0
0
0
0
0
0
0
0
0
0
0
0
0
0
0
0
0
0
0
0
0
0
0
0
0
0
0
0
0
0
0
0
0
0
0
0
0
0
0
0
0
0
0
0
0
0
0
0
0
0
0
0
0
0
0
0
0
0
0
0
0
0
0
0
0
0
0
0
0
0
0
0
0
0
0
0
0
0
0
0
0
0
0
0
0
0
0
0
0
0
0
0
0
0
0
0
0
0
0
TENSORS stress float
0.365078 0.0222861 -0.225936
0.0222861 0.327066 0.00576984
-0.225936 0.00576984 0.399273

0.26701 -0.0193916 -0.234142
-0.0193916 0.166473 0.0637475
-0.234142 0.0637475 0.491292

0.137641 -0.0111388 -0.157514
-0.0111388 0.00155557 0.0203095
-0.157514 0.0203095 0.519587

0.08524 -0.0805929 -0.0905435
-0.0805929 -0.0290558 0.0460629
-0.0905435 0.0460629 0.474365

0.068323 -0.0528148 -0.146484
-0.0528148 -0.0618608 -0.00209501
-0.146484 -0.00209501 0.44812

0.0669643 0.0223521 -0.0376884
0.0223521 0.0259578 0.0199079
-0.0376884 0.0199079 0.388754

0.0682996 0.041113 0.0525127
0.041113 -0.00689486 0.0460123
0.0525127 0.0460123 0.26772

0.151472 0.00609044 0.106358
0.00609044 -0.0216369 0.107525
0.106358 0.107525 0.151112

0.177054 -0.0282142 0.101296
-0.0282142 0.0165701 0.138765
0.101296 0.138765 0.287515

0.203761 0.00364408 0.152941
0.00364408 0.0335809 0.10155
0.152941 0.10155 0.290213

0.247816 0.0147167 0.162654
0.0147167 0.00897418 0.0876532
0.162654 0.0876532 0.240638

0.237455 -0.0226033 0.150215
-0.0226033 -0.0909187 0.0599458
0.150215 0.0599458 0.16744

0.239161 -0.0270932 0.115861
-0.0270932 -0.0505087 0.0135752
0.115861 0.0135752 0.16109

0.312416 0.0248679 0.0138415
0.0248679 -0.045972 0.0414583
0.0138415 0.0414583 0.0838414

0.301951 -0.00807805 0.014011
-0.00807805 -0.0758642 0.0925184
0.014011 0.0925184 0.0488114

0.310003 -0.0231519 0.0150073
-0.0231519 0.0303445 0.101655
0.0150073 0.101655 0.0608078

0.30882 -0.00555171 0.0544075
-0.00555171 0.0341385 0.0552184
0.0544075 0.0552184 0.0405513

0.268069 -0.0142508 -0.0358609
-0.0142508 -0.00834404 -0.00299166
-0.0358609 -0.00299166 0.0625118

0.221066 -0.00133398 -0.0995394
-0.00133398 -0.00305141 0.00104056
-0.0995394 0.00104056 0.117171

0.142198 0.00892146 -0.156893
0.00892146 0.014419 0.0401556
-0.156893 0.0401556 0.144267

0.15556 0.0317366 -0.14455
0.0317366 0.0206444 0.0524122
-0.14455 0.0524122 0.108916

0.179959 0.0218104 -0.14178
0.0218104 0.0398864 0.0159891
-0.14178 0.0159891 0.170686

0.187393 0.00228325 -0.137484
0.00228325 0.103496 -0.0113163
-0.137484 -0.0113163 0.266756

0.17257 -0.014624 -0.133271
-0.014624 0.151766 -0.0118008
-0.133271 -0.0118008 0.381198

0.152328 -0.00737028 -0.0947187
-0.00737028 0.171488 0.00380368
-0.0947187 0.00380368 0.509964

0.098546 0.00789271 -0.039646
0.00789271 0.114893 0.0324631
-0.039646 0.0324631 0.468608

0.0531205 0.0263809 0.021412
0.0263809 -0.0252208 0.00496304
0.021412 0.00496304 0.294927

0.0467982 0.0389702 0.0406568
0.0389702 -0.125191 -0.0347605
0.0406568 -0.0347605 0.187994

0.0547261 0.0313111 0.0459746
0.0313111 -0.145077 -0.0638743
0.0459746 -0.0638743 0.143767

0.0703253 0.0142557 0.0529207
0.0142557 -0.122239 -0.0807303
0.0529207 -0.0807303 0.13213

0.0867314 0.0145599 0.0682329
0.0145599 -0.115837 -0.0788773
0.0682329 -0.0788773 0.113951

0.101359 0.0375737 0.069719
0.0375737 -0.0946553 -0.0477805
0.069719 -0.0477805 0.103251

0.135373 0.0513674 0.0609666
0.0513674 -0.0526822 -0.0289785
0.0609666 -0.0289785 0.0910984

0.17271 0.0686401 0.0491452
0.0686401 -0.0340164 -0.0252035
0.0491452 -0.0252035 0.0748762

0.204275 0.0918161 0.0335584
0.0918161 -0.0271661 -0.0252715
0.0335584 -0.0252715 0.0637676

0.228836 0.11301 0.00292658
0.11301 -0.0504683 -0.0339196
0.00292658 -0.0339196 0.0558477

0.218649 0.13117 -0.00814883
0.13117 -0.14182 -0.0407017
-0.00814883 -0.0407017 0.0367301

0.220173 0.124654 -0.0204925
0.124654 -0.220532 -0.0504185
-0.0204925 -0.0504185 0.035466

0.266583 0.0952567 -0.0421669
0.0952567 -0.231116 -0.0695661
-0.0421669 -0.0695661 0.044026

0.339943 0.0561409 -0.076103
0.0561409 -0.13961 -0.0696165
-0.076103 -0.0696165 0.0726869

0.367881 0.0189663 -0.119412
0.0189663 0.0181019 -0.0364911
-0.119412 -0.0364911 0.131878

0.360017 0.0250069 -0.179825
0.0250069 0.181004 -0.0104851
-0.179825 -0.0104851 0.226911

0.304521 -0.0520384 -0.00473069
-0.0520384 0.0777102 0.0742109
-0.00473069 0.0742109 0.0269041

0.24669 -0.0566488 0.0170468
-0.0566488 0.0471507 0.0888788
0.0170468 0.0888788 0.0099897

0.235813 -0.0560673 0.0352149
-0.0560673 0.0802389 0.094808
0.0352149 0.094808 0.0249009

0.261536 -0.074629 0.0321974
-0.074629 0.156697 0.0925519
0.0321974 0.0925519 0.062061

0.257306 -0.0752626 0.0413985
-0.0752626 0.127227 0.0939803
0.0413985 0.0939803 0.0516924

0.230173 -0.0300301 0.0581459
-0.0300301 0.0691339 0.107343
0.0581459 0.107343 0.0357076

0.211272 -0.00836475 0.0562669
-0.00836475 0.0362203 0.121697
0.0562669 0.121697 0.02864

0.186472 0.010519 0.0546852
0.010519 -0.00736368 0.139951
0.0546852 0.139951 0.0122423

0.162319 0.0325811 0.0662863
0.0325811 -0.0250256 0.159094
0.0662863 0.159094 0.0111249

0.167138 0.043288 0.0818726
0.043288 0.0280851 0.173539
0.0818726 0.173539 0.056753

0.189975 0.0591839 0.0951236
0.0591839 0.157756 0.197316
0.0951236 0.197316 0.160426

0.246395 0.054645 0.121421
0.054645 0.26172 0.192941
0.121421 0.192941 0.236075

0.261687 0.0390641 0.134237
0.0390641 0.288033 0.18057
0.134237 0.18057 0.293259

0.235594 0.0330029 0.142518
0.0330029 0.237027 0.1706
0.142518 0.1706 0.307573

0.19174 0.0286103 0.139457
0.0286103 0.209208 0.174155
0.139457 0.174155 0.358611

0.163854 0.00830875 0.140739
0.00830875 0.216221 0.143456
0.140739 0.143456 0.420771

0.159039 -0.0089045 0.125242
-0.0089045 0.256533 0.0985522
0.125242 0.0985522 0.533022

0.162468 -0.0104273 0.073973
-0.0104273 0.317239 0.063906
0.073973 0.063906 0.675417

0.170282 -0.0085296 -0.0198317
-0.0085296 0.356591 0.0255549
-0.0198317 0.0255549 0.761032

0.194399 -0.00972575 -0.110058
-0.00972575 0.356294 -0.0282052
-0.110058 -0.0282052 0.72769

0.198492 -0.00907724 -0.159694
-0.00907724 0.314848 -0.0797029
-0.159694 -0.0797029 0.588422

0.200341 -0.0124141 -0.166171
-0.0124141 0.285032 -0.127277
-0.166171 -0.127277 0.449208

0.21544 -0.0260375 -0.148708
-0.0260375 0.246771 -0.15193
-0.148708 -0.15193 0.346387

0.169613 -0.0462132 -0.139831
-0.0462132 0.156141 -0.161788
-0.139831 -0.161788 0.279131

0.0816245 -0.0247611 -0.0984622
-0.0247611 0.0828013 -0.0876853
-0.0984622 -0.0876853 0.345719

0.147496 0.0163737 -0.089523
0.0163737 -0.0351367 -0.00551098
-0.089523 -0.00551098 0.123502

0.321766 -0.0443187 -0.0413831
-0.0443187 0.0874081 -0.0679851
-0.0413831 -0.0679851 0.0563348

0.373011 -0.105936 -0.0998176
-0.105936 0.243814 -0.115931
-0.0998176 -0.115931 0.165239

0.470911 -0.135377 -0.0928945
-0.135377 0.314958 -0.0861932
-0.0928945 -0.0861932 0.186692

0.506221 -0.103481 -0.0793692
-0.103481 0.351228 -0.0911475
-0.0793692 -0.0911475 0.184433

0.500359 -0.00576942 -0.141896
-0.00576942 0.17843 -0.0636656
-0.141896 -0.0636656 0.174534

0.527655 -0.0041538 -0.0292615
-0.0041538 -0.0653799 0.0129254
-0.0292615 0.0129254 0.0549716

0.603972 -0.00937948 0.100888
-0.00937948 0.162376 -0.0336533
0.100888 -0.0336533 0.118604

0.687007 0.0943544 0.109115
0.0943544 0.404158 -0.0473761
0.109115 -0.0473761 0.244686

0.536475 0.0336344 0.172128
0.0336344 0.299533 -0.0418678
0.172128 -0.0418678 0.266543

0.305294 0.0352567 0.152622
0.0352567 0.119133 -0.038809
0.152622 -0.038809 0.209371

0.221954 0.0777321 0.101028
0.0777321 0.0641372 -0.0316961
0.101028 -0.0316961 0.196098

0.18367 0.124193 0.0721002
0.124193 0.0662751 -0.00443569
0.0721002 -0.00443569 0.187648

0.156508 0.163325 0.0612367
0.163325 0.0684293 0.021436
0.0612367 0.021436 0.155314

0.145842 0.185778 0.0597914
0.185778 0.104116 0.0383377
0.0597914 0.0383377 0.135185

0.137519 0.168218 0.0640668
0.168218 0.168517 0.0289771
0.0640668 0.0289771 0.151856

0.128717 0.129941 0.0791435
0.129941 0.223632 -0.00205661
0.0791435 -0.00205661 0.209836

0.133669 0.10774 0.0986522
0.10774 0.27958 -0.0372383
0.0986522 -0.0372383 0.299834

0.159811 0.125725 0.11051
0.125725 0.343989 -0.069674
0.11051 -0.069674 0.412956

0.158123 0.0975992 0.116513
0.0975992 0.348711 -0.0833608
0.116513 -0.0833608 0.424504

0.121069 0.0443426 0.076014
0.0443426 0.322598 -0.0475282
0.076014 -0.0475282 0.414272

0.118355 0.0296854 0.0290591
0.0296854 0.315072 -0.030391
0.0290591 -0.030391 0.463455

0.115202 0.0202891 -0.013239
0.0202891 0.294892 -0.0525962
-0.013239 -0.0525962 0.502736

0.123001 0.0221814 -0.0569635
0.0221814 0.280892 -0.0647423
-0.0569635 -0.0647423 0.495772

0.130079 0.0270005 -0.0975567
0.0270005 0.246302 -0.0511437
-0.0975567 -0.0511437 0.452186

0.154775 0.030583 -0.128422
0.030583 0.218507 -0.0240045
-0.128422 -0.0240045 0.413183

0.205944 0.043597 -0.166769
0.043597 0.228585 -0.0233439
-0.166769 -0.0233439 0.385663

0.26632 0.0247803 -0.196121
0.0247803 0.278362 0.0123389
-0.196121 0.0123389 0.364135

0.336721 -0.0100592 -0.210897
-0.0100592 0.304737 0.0497271
-0.210897 0.0497271 0.328185

0.381852 -0.0483326 -0.211739
-0.0483326 0.283833 0.0645509
-0.211739 0.0645509 0.259124

0.450735 -0.0787672 -0.184454
-0.0787672 0.314717 0.0752106
-0.184454 0.0752106 0.216756

0.468157 -0.0975789 -0.130221
-0.0975789 0.294312 0.0739648
-0.130221 0.0739648 0.164511

0.395379 -0.100456 -0.0653498
-0.100456 0.182242 0.0736634
-0.0653498 0.0736634 0.0973045

0.344019 -0.0430463 -0.334128
-0.0430463 0.206043 -0.00205538
-0.334128 -0.00205538 0.512405

0.249403 -0.0209755 -0.292739
-0.0209755 0.0982613 0.0324251
-0.292739 0.0324251 0.555294

0.208837 -0.00644351 -0.238246
-0.00644351 0.0993648 0.0519231
-0.238246 0.0519231 0.61344

0.12975 -0.00160435 -0.173235
-0.00160435 0.106682 0.0846803
-0.173235 0.0846803 0.682896

0.0790052 0.00822546 -0.0479098
0.00822546 0.0912308 0.0776489
-0.0479098 0.0776489 0.716599

0.0949781 0.0248773 0.0999145
0.0248773 0.0918615 0.0608825
0.0999145 0.0608825 0.682963

0.197788 -0.00183098 0.189826
-0.00183098 0.153754 0.0259064
0.189826 0.0259064 0.600688

0.282799 -0.00850656 0.216284
-0.00850656 0.216335 0.0732497
0.216284 0.0732497 0.515023

0.327363 0.0224277 0.246351
0.0224277 0.198562 0.109214
0.246351 0.109214 0.433633

0.406465 0.0595661 0.243753
0.0595661 0.163581 0.0892954
0.243753 0.0892954 0.3299

0.475339 0.0521999 0.188844
0.0521999 0.121959 0.0336557
0.188844 0.0336557 0.248719

0.474686 0.0257229 0.128694
0.0257229 0.0340941 0.000326119
0.128694 0.000326119 0.154378

0.491078 0.0126044 0.0875293
0.0126044 0.0353344 -0.00892247
0.0875293 -0.00892247 0.134253

0.529234 0.00526405 0.0520861
0.00526405 0.0954239 -0.0108104
0.0520861 -0.0108104 0.137257

0.530101 0.0137834 0.00757375
0.0137834 0.126968 -0.00451829
0.00757375 -0.00451829 0.114764

0.525816 0.042874 -0.0610958
0.042874 0.118734 -0.0122499
-0.0610958 -0.0122499 0.111311

0.499998 0.0187113 -0.131181
0.0187113 0.0764332 -0.0197101
-0.131181 -0.0197101 0.125618

0.422246 -0.0132389 -0.184277
-0.0132389 0.0559824 -0.013573
-0.184277 -0.013573 0.166193

0.354682 -0.029264 -0.192341
-0.029264 0.0784343 -0.00321465
-0.192341 -0.00321465 0.231236

0.285171 -0.0278117 -0.18744
-0.0278117 0.0781832 0.00205975
-0.18744 0.00205975 0.267677

0.236331 -0.0300742 -0.196801
-0.0300742 0.080273 0.0114354
-0.196801 0.0114354 0.298421

0.214761 -0.0295904 -0.209589
-0.0295904 0.138732 0.0194077
-0.209589 0.0194077 0.387815

0.185508 -0.0137863 -0.200584
-0.0137863 0.176697 0.0198204
-0.200584 0.0198204 0.508204

0.167277 0.0168441 -0.145481
0.0168441 0.194029 0.00115021
-0.145481 0.00115021 0.602539

0.105938 0.00567453 -0.0612064
0.00567453 0.116443 -0.0114028
-0.0612064 -0.0114028 0.599357

0.0870001 -0.0235393 0.0185672
-0.0235393 0.00839094 -0.00898449
0.0185672 -0.00898449 0.541981

0.115578 -0.0420349 0.064299
-0.0420349 -0.032695 0.0050079
0.064299 0.0050079 0.505571

0.139191 -0.0464695 0.102399
-0.0464695 -0.0269427 0.0148452
0.102399 0.0148452 0.485516

0.177213 -0.0418273 0.15215
-0.0418273 0.00291045 0.0147293
0.15215 0.0147293 0.466685

0.254289 -0.0267677 0.199115
-0.0267677 0.0599659 0.0180174
0.199115 0.0180174 0.439187

0.338184 0.00171437 0.222482
0.00171437 0.0978086 0.0329992
0.222482 0.0329992 0.365726

0.405499 0.0286286 0.216045
0.0286286 0.109044 0.0378492
0.216045 0.0378492 0.27419

0.493191 0.0483532 0.183065
0.0483532 0.140043 0.0297103
0.183065 0.0297103 0.209413

0.573281 0.0609094 0.121676
0.0609094 0.151304 0.019052
0.121676 0.019052 0.150228

0.612364 0.0616945 0.0271753
0.0616945 0.13424 0.0206073
0.0271753 0.0206073 0.121025

0.588924 0.0682405 -0.071062
0.0682405 0.0451655 0.0434263
-0.071062 0.0434263 0.11286

0.533187 0.0923961 -0.146231
0.0923961 -0.0592524 0.0590764
-0.146231 0.0590764 0.127333

0.501254 0.113864 -0.173799
0.113864 -0.112235 0.0446812
-0.173799 0.0446812 0.150821

0.492503 0.0998295 -0.197562
0.0998295 -0.074034 0.0154606
-0.197562 0.0154606 0.174502

0.524001 0.0772145 -0.227201
0.0772145 0.0705517 -0.014473
-0.227201 -0.014473 0.216161

0.528305 0.0542382 -0.286485
0.0542382 0.223892 -0.0532694
-0.286485 -0.0532694 0.277181

0.460622 -0.00220107 -0.336326
-0.00220107 0.28274 -0.0645043
-0.336326 -0.0645043 0.393312

0.572621 -0.0729441 -0.0911715
-0.0729441 0.12675 0.0102133
-0.0911715 0.0102133 0.119542

0.577847 -0.0432605 -0.0546937
-0.0432605 0.170681 0.0147894
-0.0546937 0.0147894 0.1127

0.589844 -0.041291 -0.00368734
-0.041291 0.215511 0.0236053
-0.00368734 0.0236053 0.0992901

0.615935 -0.0423364 0.0608008
-0.0423364 0.242922 0.0225856
0.0608008 0.0225856 0.124098

0.59836 -0.0157182 0.120539
-0.0157182 0.207687 0.0215021
0.120539 0.0215021 0.158032

0.53293 0.0196342 0.168401
0.0196342 0.146632 0.031429
0.168401 0.031429 0.203469

0.476329 0.0463481 0.194724
0.0463481 0.121723 0.0498996
0.194724 0.0498996 0.265428

0.407078 0.0868246 0.214403
0.0868246 0.112662 0.0809767
0.214403 0.0809767 0.313112

0.347981 0.110768 0.228595
0.110768 0.151595 0.117983
0.228595 0.117983 0.354511

0.31871 0.0888147 0.231314
0.0888147 0.258114 0.145682
0.231314 0.145682 0.400847

0.23308 0.0541797 0.228458
0.0541797 0.278029 0.160579
0.228458 0.160579 0.411449

0.20359 0.0149875 0.207237
0.0149875 0.282356 0.139162
0.207237 0.139162 0.438248

0.185347 0.0059663 0.179982
0.0059663 0.261817 0.119165
0.179982 0.119165 0.462058

0.155829 0.00723795 0.166614
0.00723795 0.223612 0.118802
0.166614 0.118802 0.476021

0.118239 -0.00799923 0.142549
-0.00799923 0.213923 0.122265
0.142549 0.122265 0.53323

0.106268 -0.0432794 0.0941905
-0.0432794 0.248899 0.115715
0.0941905 0.115715 0.611817

0.104176 -0.0812153 0.0379492
-0.0812153 0.277344 0.081543
0.0379492 0.081543 0.658997

0.0894443 -0.0997647 -0.0103353
-0.0997647 0.279701 0.0223511
-0.0103353 0.0223511 0.667252

0.0863834 -0.0933409 -0.056872
-0.0933409 0.293404 -0.0504397
-0.056872 -0.0504397 0.684414

0.0931139 -0.066643 -0.117926
-0.066643 0.30192 -0.110144
-0.117926 -0.110144 0.694947

0.14174 -0.0412444 -0.178237
-0.0412444 0.328763 -0.149355
-0.178237 -0.149355 0.655998

0.195127 -0.0119886 -0.206139
-0.0119886 0.33383 -0.160123
-0.206139 -0.160123 0.572958

0.221867 0.0281747 -0.214932
0.0281747 0.28698 -0.131808
-0.214932 -0.131808 0.485257

0.370392 -0.011471 -0.207024
-0.011471 0.100122 -0.0223502
-0.207024 -0.0223502 0.294403

0.44734 -0.098702 -0.192757
-0.098702 0.201695 0.0193246
-0.192757 0.0193246 0.238034

0.542468 -0.144291 -0.157399
-0.144291 0.343226 -0.0266237
-0.157399 -0.0266237 0.197532

0.589726 -0.146934 -0.126413
-0.146934 0.371098 -0.0848733
-0.126413 -0.0848733 0.159347

0.577543 -0.0771036 -0.0896197
-0.0771036 0.299922 -0.0978273
-0.0896197 -0.0978273 0.103231

0.60118 0.012321 -0.0452962
0.012321 0.18329 -0.0621492
-0.0452962 -0.0621492 0.075805

0.653866 -0.00478457 -0.00263986
-0.00478457 0.123804 -0.0216644
-0.00263986 -0.0216644 0.0969857

0.601668 -0.0340418 0.0617726
-0.0340418 0.134452 -0.0448588
0.0617726 -0.0448588 0.0871821

0.592529 0.0434678 0.107416
0.0434678 0.260592 -0.0865899
0.107416 -0.0865899 0.195218

0.577197 0.109197 0.113696
0.109197 0.274475 -0.0529503
0.113696 -0.0529503 0.209552

0.440838 0.090599 0.1488
0.090599 0.166873 0.0052859
0.1488 0.0052859 0.161773

0.342669 0.0653798 0.141269
0.0653798 0.122808 0.0253773
0.141269 0.0253773 0.160105

0.315845 0.0659846 0.130052
0.0659846 0.116208 0.0358111
0.130052 0.0358111 0.14749

0.309333 0.0805177 0.141965
0.0805177 0.133984 0.0520057
0.141965 0.0520057 0.151591

0.321075 0.0922599 0.165765
0.0922599 0.200847 0.0476423
0.165765 0.0476423 0.186964

0.335299 0.0924897 0.195868
0.0924897 0.312256 0.0207778
0.195868 0.0207778 0.28114

0.298404 0.074336 0.219337
0.074336 0.373308 -0.016661
0.219337 -0.016661 0.370862

0.227806 0.0625536 0.217022
0.0625536 0.412002 -0.0574418
0.217022 -0.0574418 0.454156

0.179765 0.0698887 0.179663
0.0698887 0.487061 -0.078281
0.179663 -0.078281 0.550685

0.12653 0.078446 0.126584
0.078446 0.481451 -0.0505349
0.126584 -0.0505349 0.587186

0.050432 0.0545844 0.0623897
0.0545844 0.383835 -0.048224
0.0623897 -0.048224 0.587004

0.061092 0.0438801 -0.00814869
0.0438801 0.364673 -0.0529337
-0.00814869 -0.0529337 0.598076

0.073746 0.0366466 -0.0621159
0.0366466 0.329605 -0.0458327
-0.0621159 -0.0458327 0.579956

0.0859161 0.0330311 -0.108782
0.0330311 0.294624 -0.0329873
-0.108782 -0.0329873 0.545243

0.109395 0.0295488 -0.152219
0.0295488 0.257076 -0.0225511
-0.152219 -0.0225511 0.506802

0.158464 0.0304311 -0.189609
0.0304311 0.24203 -0.0221232
-0.189609 -0.0221232 0.474422

0.199349 0.039094 -0.220836
0.039094 0.248568 -0.0195993
-0.220836 -0.0195993 0.448613

0.24776 0.0409741 -0.258156
0.0409741 0.265169 -0.000974355
-0.258156 -0.000974355 0.408732

0.328218 0.0169519 -0.281571
0.0169519 0.293852 0.0348232
-0.281571 0.0348232 0.370777

0.404445 -0.0161565 -0.295022
-0.0161565 0.284931 0.0536166
-0.295022 0.0536166 0.315044

0.482326 -0.0432295 -0.277079
-0.0432295 0.305184 0.0676555
-0.277079 0.0676555 0.259375

0.534967 -0.0876105 -0.237721
-0.0876105 0.281491 0.07518
-0.237721 0.07518 0.20081

0.575194 -0.111491 -0.181532
-0.111491 0.225964 0.0545195
-0.181532 0.0545195 0.171343

0.584489 -0.102601 -0.136875
-0.102601 0.169699 0.0286175
-0.136875 0.0286175 0.158269

0.3184 0.0417227 -0.213039
0.0417227 0.148494 -0.0786701
-0.213039 -0.0786701 0.337689

0.286984 0.0312354 -0.241093
0.0312354 0.244228 -0.0962185
-0.241093 -0.0962185 0.392852

0.106051 -0.0448338 -0.140432
-0.0448338 0.139357 0.115589
-0.140432 0.115589 0.773109

0.078345 -0.0186655 0.0128106
-0.0186655 0.153633 0.101403
0.0128106 0.101403 0.82209

0.109838 -0.00805424 0.164219
-0.00805424 0.164932 0.0770262
0.164219 0.0770262 0.781425

0.197442 -0.0106322 0.279915
-0.0106322 0.196543 0.070653
0.279915 0.070653 0.683551

0.302173 -0.00192783 0.336779
-0.00192783 0.217495 0.0826836
0.336779 0.0826836 0.569984

0.406067 0.0183026 0.348999
0.0183026 0.206672 0.0910605
0.348999 0.0910605 0.451516

0.513884 0.0241255 0.322873
0.0241255 0.184355 0.075661
0.322873 0.075661 0.327168

0.570394 0.0186593 0.24718
0.0186593 0.152344 0.0433276
0.24718 0.0433276 0.213243

0.557273 0.0145234 0.171979
0.0145234 0.0883666 0.00638027
0.171979 0.00638027 0.129812

0.549097 0.011496 0.124236
0.011496 0.0674946 -0.0103038
0.124236 -0.0103038 0.0875417

0.568138 0.0169776 0.0854431
0.0169776 0.101204 0.000568667
0.0854431 0.000568667 0.0813699

0.591729 0.0290588 0.0277898
0.0290588 0.121907 0.0112564
0.0277898 0.0112564 0.071802

0.615475 0.027906 -0.0507808
0.027906 0.135181 0.0134986
-0.0507808 0.0134986 0.0828356

0.607841 0.0173679 -0.138768
0.0173679 0.129871 0.00859483
-0.138768 0.00859483 0.113223

0.538791 -0.00177659 -0.210435
-0.00177659 0.121219 0.0102245
-0.210435 0.0102245 0.162642

0.414479 -0.00867391 -0.236377
-0.00867391 0.119116 0.0190202
-0.236377 0.0190202 0.214766

0.305512 -0.0074115 -0.230564
-0.0074115 0.120791 0.0293129
-0.230564 0.0293129 0.260536

0.22103 -0.012055 -0.224714
-0.012055 0.125374 0.0397666
-0.224714 0.0397666 0.324333

0.17473 -0.0121878 -0.220819
-0.0121878 0.1426 0.0433718
-0.220819 0.0433718 0.428802

0.164551 0.00277497 -0.198057
0.00277497 0.16304 0.0235307
-0.198057 0.0235307 0.551284

0.0921435 0.0186779 -0.0198229
0.0186779 0.0886017 0.00361137
-0.0198229 0.00361137 0.626749

0.0650415 -0.0113646 0.0526029
-0.0113646 0.0338674 0.00909215
0.0526029 0.00909215 0.569451

0.0738802 -0.0244985 0.108523
-0.0244985 0.0104451 0.013615
0.108523 0.013615 0.55061

0.107946 -0.0215435 0.167743
-0.0215435 0.0209407 0.0183425
0.167743 0.0183425 0.549955

0.167351 -0.00688503 0.234521
-0.00688503 0.0474961 0.0209454
0.234521 0.0209454 0.540958

0.264704 0.0148205 0.294658
0.0148205 0.0967602 0.0160956
0.294658 0.0160956 0.507833

0.370567 0.0302855 0.329568
0.0302855 0.131635 0.010913
0.329568 0.010913 0.432127

0.473265 0.0437141 0.326553
0.0437141 0.143646 0.00898694
0.326553 0.00898694 0.326943

0.581574 0.0534285 0.286521
0.0534285 0.158527 -0.00252836
0.286521 -0.00252836 0.233537

0.677202 0.0567202 0.210643
0.0567202 0.163897 -0.0166289
0.210643 -0.0166289 0.154364

0.725816 0.0546651 0.102545
0.0546651 0.14922 -0.0225515
0.102545 -0.0225515 0.100936

0.707014 0.0564241 -0.0219204
0.0564241 0.102219 -0.0132249
-0.0219204 -0.0132249 0.0709986

0.627544 0.0733271 -0.143194
0.0733271 0.0500224 0.00480911
-0.143194 0.00480911 0.0916739

0.523163 0.0893285 -0.20991
0.0893285 -0.0094683 0.013266
-0.20991 0.013266 0.102245

0.497124 0.103014 -0.254779
0.103014 0.0126761 -0.00210872
-0.254779 -0.00210872 0.143899

0.541189 0.0915875 -0.30067
0.0915875 0.0961454 -0.0306593
-0.30067 -0.0306593 0.230404

0.644813 0.057323 -0.374816
0.057323 0.18686 -0.0431627
-0.374816 -0.0431627 0.380641

0.717125 -0.00652858 -0.453583
-0.00652858 0.235457 -0.0274945
-0.453583 -0.0274945 0.5689

0.559646 -0.0598683 -0.449344
-0.0598683 0.169001 0.0205398
-0.449344 0.0205398 0.623292

0.160968 0.0418971 -0.0923266
0.0418971 0.160973 0.00535521
-0.0923266 0.00535521 0.673705

0.146151 0.038476 -0.12686
0.038476 0.16919 0.0235221
-0.12686 0.0235221 0.635366

0.352829 -0.00347054 -0.253192
-0.00347054 0.238856 -0.0455125
-0.253192 -0.0455125 0.317465

0.366911 -0.0230901 -0.240951
-0.0230901 0.189768 -0.0270355
-0.240951 -0.0270355 0.295025

0.428131 -0.0754631 -0.227362
-0.0754631 0.25196 -0.00833042
-0.227362 -0.00833042 0.243166

0.490903 -0.129157 -0.197494
-0.129157 0.330189 -0.021636
-0.197494 -0.021636 0.221202

0.539137 -0.13467 -0.161177
-0.13467 0.352239 -0.0512441
-0.161177 -0.0512441 0.191556

0.585049 -0.103942 -0.128454
-0.103942 0.300259 -0.0567432
-0.128454 -0.0567432 0.151441

0.6028 -0.0651414 -0.0800368
-0.0651414 0.221739 -0.0490027
-0.0800368 -0.0490027 0.100828

0.568751 -0.0352638 -0.0209269
-0.0352638 0.167776 -0.0475151
-0.0209269 -0.0475151 0.0690503

0.548793 -0.0220852 0.0396771
-0.0220852 0.177135 -0.054016
0.0396771 -0.054016 0.0989842

0.493076 0.0872933 0.111609
0.0872933 0.220364 -0.0504813
0.111609 -0.0504813 0.163483

0.433021 0.0972151 0.142389
0.0972151 0.186359 -0.00852711
0.142389 -0.00852711 0.130023

0.370595 0.0878833 0.162834
0.0878833 0.157575 0.0226833
0.162834 0.0226833 0.130849

0.326837 0.0713829 0.179372
0.0713829 0.146818 0.0347369
0.179372 0.0347369 0.158557

0.309071 0.0732855 0.211112
0.0732855 0.152051 0.0498632
0.211112 0.0498632 0.192457

0.317622 0.0950476 0.242942
0.0950476 0.238364 0.0489761
0.242942 0.0489761 0.282716

0.315379 0.111247 0.258687
0.111247 0.356165 0.0341452
0.258687 0.0341452 0.388228

0.269708 0.100061 0.255525
0.100061 0.405128 0.0218554
0.255525 0.0218554 0.451538

0.215795 0.0735902 0.23497
0.0735902 0.418455 -0.000432726
0.23497 -0.000432726 0.509044

0.166714 0.0465375 0.205167
0.0465375 0.434124 -0.0266102
0.205167 -0.0266102 0.569413

0.125322 0.0326302 0.15384
0.0326302 0.43716 -0.0495953
0.15384 -0.0495953 0.620405

0.0863646 0.0264376 0.0875249
0.0264376 0.39593 -0.0642806
0.0875249 -0.0642806 0.639358

0.0761847 0.0251027 0.0166257
0.0251027 0.361948 -0.0743463
0.0166257 -0.0743463 0.626589

0.0772112 0.0229511 -0.0400683
0.0229511 0.31669 -0.0582734
-0.0400683 -0.0582734 0.590435

0.0900377 0.0206968 -0.0937631
0.0206968 0.294009 -0.0445472
-0.0937631 -0.0445472 0.57051

0.116184 0.0219214 -0.148735
0.0219214 0.272674 -0.0371925
-0.148735 -0.0371925 0.546356

0.154402 0.0225916 -0.197039
0.0225916 0.252702 -0.0336108
-0.197039 -0.0336108 0.503152

0.209279 0.0249015 -0.236725
0.0249015 0.252876 -0.02721
-0.236725 -0.02721 0.473729

0.281248 0.0257859 -0.277409
0.0257859 0.251497 -0.015992
-0.277409 -0.015992 0.444396

0.360321 0.0178248 -0.299904
0.0178248 0.252677 0.00309917
-0.299904 0.00309917 0.399271

0.437601 -0.00409701 -0.310421
-0.00409701 0.246689 0.0259433
-0.310421 0.0259433 0.340696

0.530486 -0.0303294 -0.302053
-0.0303294 0.264277 0.0436355
-0.302053 0.0436355 0.293447

0.592355 -0.0601997 -0.270059
-0.0601997 0.258203 0.0508354
-0.270059 0.0508354 0.236803

0.611862 -0.0839505 -0.221494
-0.0839505 0.225562 0.0427343
-0.221494 0.0427343 0.168547

0.642385 -0.0957092 -0.172987
-0.0957092 0.203924 0.0320573
-0.172987 0.0320573 0.126074

0.687903 -0.0843883 -0.121597
-0.0843883 0.191436 0.0182859
-0.121597 0.0182859 0.0902161

0.73432 -0.0669571 -0.0552627
-0.0669571 0.219494 0.0157663
-0.0552627 0.0157663 0.0740345

0.776049 -0.0541827 0.0213466
-0.0541827 0.251742 0.0231967
0.0213466 0.0231967 0.0732103

0.782738 -0.0463504 0.104376
-0.0463504 0.27607 0.0296344
0.104376 0.0296344 0.0973774

0.723878 -0.0234773 0.178769
-0.0234773 0.257008 0.0313589
0.178769 0.0313589 0.135369

0.610798 0.0163264 0.228999
0.0163264 0.197569 0.0415628
0.228999 0.0415628 0.171352

0.525998 0.0571466 0.260279
0.0571466 0.179867 0.0650747
0.260279 0.0650747 0.228856

0.458301 0.0863739 0.279112
0.0863739 0.189209 0.0954936
0.279112 0.0954936 0.29145

0.385254 0.108391 0.287215
0.108391 0.208068 0.130802
0.287215 0.130802 0.333319

0.347334 0.0940958 0.283963
0.0940958 0.270406 0.152677
0.283963 0.152677 0.386833

0.308452 0.0582213 0.279727
0.0582213 0.297453 0.146775
0.279727 0.146775 0.443937

0.250729 0.0285503 0.250813
0.0285503 0.291235 0.127251
0.250813 0.127251 0.465211

0.205152 0.00322422 0.214599
0.00322422 0.275461 0.101258
0.214599 0.101258 0.462476

0.155616 -0.00939607 0.186015
-0.00939607 0.246069 0.0838439
0.186015 0.0838439 0.473314

0.114933 -0.0193731 0.144634
-0.0193731 0.238413 0.0854086
0.144634 0.0854086 0.525646

0.102306 -0.0411199 0.087776
-0.0411199 0.252795 0.0813272
0.087776 0.0813272 0.592947

0.105963 -0.0607664 0.0354314
-0.0607664 0.266217 0.0479194
0.0354314 0.0479194 0.644019

0.100323 -0.0669449 -0.0150927
-0.0669449 0.268111 0.0040666
-0.0150927 0.0040666 0.662744

0.10947 -0.0614983 -0.0739626
-0.0614983 0.289144 -0.0482127
-0.0739626 -0.0482127 0.684675

0.124626 -0.0471716 -0.139818
-0.0471716 0.305902 -0.106622
-0.139818 -0.106622 0.688312

0.164154 -0.0280173 -0.198378
-0.0280173 0.333984 -0.144661
-0.198378 -0.144661 0.656298

0.194288 -0.00264105 -0.23423
-0.00264105 0.350232 -0.159398
-0.23423 -0.159398 0.589449

0.23528 0.0231117 -0.261963
0.0231117 0.323932 -0.14348
-0.261963 -0.14348 0.498566

0.299801 0.0273556 -0.274812
0.0273556 0.307058 -0.102036
-0.274812 -0.102036 0.435777

0.359682 0.016463 -0.270928
0.016463 0.300373 -0.0522658
-0.270928 -0.0522658 0.367087

0.36831 0.00317068 -0.237253
0.00317068 0.290271 -0.0228751
-0.237253 -0.0228751 0.273035

0.387144 -0.0351737 -0.232413
-0.0351737 0.274875 -0.0103954
-0.232413 -0.0103954 0.263637

0.520164 0.0422777 0.104972
0.0422777 0.230312 -0.0700863
0.104972 -0.0700863 0.1886

0.457108 -0.0107742 0.0697065
-0.0107742 0.1817 -0.0693137
0.0697065 -0.0693137 0.118602

0.12872 0.0454214 -0.068047
0.0454214 0.182248 0.0512909
-0.068047 0.0512909 0.623399

0.1079 0.0375147 -0.0379668
0.0375147 0.135838 0.0200655
-0.0379668 0.0200655 0.619598

0.0855004 0.0108341 0.00476814
0.0108341 0.102227 0.0122204
0.00476814 0.0122204 0.614787

0.0596235 -0.0110747 0.0614208
-0.0110747 0.059291 0.0229174
0.0614208 0.0229174 0.579091

0.0786173 -0.0159561 0.117598
-0.0159561 0.0525511 0.0324515
0.117598 0.0324515 0.573195

0.127992 -0.00665787 0.182123
-0.00665787 0.066669 0.0368556
0.182123 0.0368556 0.59091

0.201417 0.0108454 0.256231
0.0108454 0.0887855 0.0352185
0.256231 0.0352185 0.595257

0.303921 0.0290898 0.323831
0.0290898 0.122522 0.0236842
0.323831 0.0236842 0.574892

0.424338 0.0409625 0.366891
0.0409625 0.154614 0.00805456
0.366891 0.00805456 0.516395

0.538877 0.0456096 0.370558
0.0456096 0.163005 -0.00513784
0.370558 -0.00513784 0.409951

0.647073 0.0490883 0.328208
0.0490883 0.170645 -0.0190819
0.328208 -0.0190819 0.299432

0.741513 0.053513 0.247561
0.053513 0.180538 -0.0319386
0.247561 -0.0319386 0.214159

0.781462 0.0503561 0.14216
0.0503561 0.164031 -0.0400308
0.14216 -0.0400308 0.145311

0.772 0.051706 0.021992
0.051706 0.149369 -0.0440896
0.021992 -0.0440896 0.12709

0.686788 0.0635633 -0.077135
0.0635633 0.122344 -0.0447702
-0.077135 -0.0447702 0.12996

0.454323 0.0938297 -0.273628
0.0938297 0.0739967 -0.0467863
-0.273628 -0.0467863 0.177492

0.471291 0.0684187 -0.324147
0.0684187 0.113639 -0.0563197
-0.324147 -0.0563197 0.304708

0.535541 0.02964 -0.37019
0.02964 0.128713 -0.035755
-0.37019 -0.035755 0.423665

0.6295 -0.0410348 -0.401382
-0.0410348 0.145784 -0.00265273
-0.401382 -0.00265273 0.54192

0.574968 -0.117131 -0.411775
-0.117131 0.148177 0.061058
-0.411775 0.061058 0.598074

0.115225 -0.0497422 -0.060988
-0.0497422 0.178096 0.11529
-0.060988 0.11529 0.784038

0.0988614 -0.0268691 0.0659797
-0.0268691 0.175877 0.0963553
0.0659797 0.0963553 0.796848

0.139855 -0.0131515 0.191646
-0.0131515 0.181508 0.0757785
0.191646 0.0757785 0.765408

0.240404 -0.00402403 0.304066
-0.00402403 0.200483 0.064639
0.304066 0.064639 0.712458

0.364527 0.00640352 0.380738
0.00640352 0.207535 0.0629236
0.380738 0.0629236 0.613215

0.486749 0.0117715 0.404112
0.0117715 0.197657 0.0621784
0.404112 0.0621784 0.482577

0.596141 0.0047033 0.371745
0.0047033 0.18061 0.0534326
0.371745 0.0534326 0.361199

0.663805 0.00048706 0.291354
0.00048706 0.170016 0.0319355
0.291354 0.0319355 0.270381

0.620962 0.0151412 0.210921
0.0151412 0.11159 0.00366989
0.210921 0.00366989 0.164841

0.585408 0.0323254 0.150414
0.0323254 0.0896478 -0.0106048
0.150414 -0.0106048 0.0962584

0.585512 0.0416535 0.100653
0.0416535 0.110647 -0.000814026
0.100653 -0.000814026 0.0784321

0.615275 0.0444367 0.0397066
0.0444367 0.145446 0.0149691
0.0397066 0.0149691 0.0788076

0.648109 0.0347559 -0.0369328
0.0347559 0.16588 0.0262545
-0.0369328 0.0262545 0.0903038

0.643124 0.0208661 -0.120826
0.0208661 0.168016 0.0276105
-0.120826 0.0276105 0.112261

0.576235 0.00921322 -0.18847
0.00921322 0.158779 0.0276784
-0.18847 0.0276784 0.147634

0.477816 -0.000619861 -0.228938
-0.000619861 0.163464 0.0316464
-0.228938 0.0316464 0.212566

0.367421 -0.00406758 -0.239016
-0.00406758 0.167391 0.0390465
-0.239016 0.0390465 0.282445

0.266113 -0.00226002 -0.22189
-0.00226002 0.174517 0.0498815
-0.22189 0.0498815 0.35258

0.181129 -0.00232437 -0.208671
-0.00232437 0.158102 0.0480484
-0.208671 0.0480484 0.419857

0.140786 0.0019207 -0.180698
0.0019207 0.157054 0.0430172
-0.180698 0.0430172 0.52342

0.120087 0.0177886 -0.130969
0.0177886 0.183252 0.0499217
-0.130969 0.0499217 0.593225

0.145485 0.0219247 -0.101624
0.0219247 0.214008 0.0964551
-0.101624 0.0964551 0.655563

0.142834 0.0231321 -0.0863207
0.0231321 0.201724 0.096163
-0.0863207 0.096163 0.627999

0.103618 0.0268071 -0.0468749
0.0268071 0.16708 0.0598553
-0.0468749 0.0598553 0.600233

0.143252 -0.0677402 -0.14333
-0.0677402 0.157843 0.119394
-0.14333 0.119394 0.694682

0.157399 -0.0820855 -0.162737
-0.0820855 0.140739 0.112876
-0.162737 0.112876 0.581517

0.506256 0.0809189 -0.200993
0.0809189 0.0743527 -0.0333947
-0.200993 -0.0333947 0.124798

0.604995 0.0696729 -0.118436
0.0696729 0.112063 -0.0497734
-0.118436 -0.0497734 0.129659

0.415985 -0.0667653 -0.194619
-0.0667653 0.322569 -0.020291
-0.194619 -0.020291 0.214753

0.455301 -0.0984805 -0.166466
-0.0984805 0.344803 -0.034387
-0.166466 -0.034387 0.200123

0.491119 -0.103109 -0.140362
-0.103109 0.296966 -0.0396638
-0.140362 -0.0396638 0.156976

0.503788 -0.0777149 -0.101005
-0.0777149 0.233201 -0.0376098
-0.101005 -0.0376098 0.111446

0.499883 -0.0477289 -0.0503875
-0.0477289 0.204102 -0.0377925
-0.0503875 -0.0377925 0.0880585

0.451575 -0.0250217 -0.00497699
-0.0250217 0.195646 -0.0456714
-0.00497699 -0.0456714 0.0821642

0.424012 -0.016785 0.023183
-0.016785 0.205592 -0.0491682
0.023183 -0.0491682 0.0990523

0.391982 -0.0195162 0.0326529
-0.0195162 0.204886 -0.0467418
0.0326529 -0.0467418 0.0979053

0.40338 -0.0154483 0.0692671
-0.0154483 0.216257 -0.0720268
0.0692671 -0.0720268 0.128961

0.410645 0.0250241 0.0924369
0.0250241 0.215138 -0.0690663
0.0924369 -0.0690663 0.133983

0.43219 0.0593985 0.118272
0.0593985 0.226533 -0.0470092
0.118272 -0.0470092 0.142155

0.412137 0.0747966 0.153446
0.0747966 0.200673 -0.0128722
0.153446 -0.0128722 0.130413

0.38308 0.0827824 0.18097
0.0827824 0.198854 0.016916
0.18097 0.016916 0.151264

0.342894 0.0840691 0.204172
0.0840691 0.198388 0.0402424
0.204172 0.0402424 0.192443

0.296357 0.0764937 0.234808
0.0764937 0.184663 0.0526693
0.234808 0.0526693 0.246452

0.290389 0.0911138 0.262767
0.0911138 0.256854 0.0602243
0.262767 0.0602243 0.370555

0.307531 0.115351 0.264518
0.115351 0.395347 0.0823345
0.264518 0.0823345 0.49269

0.24214 0.0968123 0.237874
0.0968123 0.424966 0.074916
0.237874 0.074916 0.490807

0.184591 0.0600445 0.21395
0.0600445 0.422249 0.0445908
0.21395 0.0445908 0.498579

0.158271 0.0246067 0.197805
0.0246067 0.43299 0.0078914
0.197805 0.0078914 0.562621

0.118204 0.00331508 0.156924
0.00331508 0.429652 -0.0338975
0.156924 -0.0338975 0.623802

0.080487 0.00459064 0.0965678
0.00459064 0.399732 -0.0592781
0.0965678 -0.0592781 0.646975

0.0713795 0.0104808 0.0336731
0.0104808 0.356009 -0.0637538
0.0336731 -0.0637538 0.628829

0.080494 0.0142568 -0.0223526
0.0142568 0.309814 -0.0613477
-0.0223526 -0.0613477 0.597427

0.0942425 0.0160427 -0.078017
0.0160427 0.291111 -0.0610622
-0.078017 -0.0610622 0.582597

0.114529 0.0192156 -0.134356
0.0192156 0.275834 -0.053185
-0.134356 -0.053185 0.558438

0.147908 0.0223978 -0.187785
0.0223978 0.255349 -0.051943
-0.187785 -0.051943 0.513654

0.205886 0.0275006 -0.233588
0.0275006 0.25041 -0.0495176
-0.233588 -0.0495176 0.484346

0.274173 0.0316949 -0.272239
0.0316949 0.241799 -0.0367499
-0.272239 -0.0367499 0.447321

0.342092 0.0270256 -0.29202
0.0270256 0.228524 -0.0169037
-0.29202 -0.0169037 0.396247

0.409824 0.0108345 -0.302231
0.0108345 0.215434 0.00535677
-0.302231 0.00535677 0.341441

0.503805 -0.0112075 -0.299058
-0.0112075 0.236253 0.0265188
-0.299058 0.0265188 0.304561

0.559496 -0.0446166 -0.266218
-0.0446166 0.234921 0.0401169
-0.266218 0.0401169 0.238079

0.589029 -0.0745698 -0.220522
-0.0745698 0.222012 0.032455
-0.220522 0.032455 0.162029

0.6394 -0.0856743 -0.17313
-0.0856743 0.223795 0.0239754
-0.17313 0.0239754 0.119356

0.710208 -0.0799819 -0.12183
-0.0799819 0.233299 0.0197912
-0.12183 0.0197912 0.0896494

0.809678 -0.070411 -0.0522732
-0.070411 0.27314 0.0194086
-0.0522732 0.0194086 0.08262

0.876494 -0.0644286 0.037102
-0.0644286 0.308096 0.0233554
0.037102 0.0233554 0.0819461

0.876896 -0.0535214 0.130183
-0.0535214 0.331348 0.0293846
0.130183 0.0293846 0.108949

0.786812 -0.0289179 0.204222
-0.0289179 0.312705 0.0315744
0.204222 0.0315744 0.145981

0.657324 0.0161099 0.248204
0.0161099 0.271396 0.0407343
0.248204 0.0407343 0.181407

0.554026 0.0635951 0.275974
0.0635951 0.251869 0.0662035
0.275974 0.0662035 0.228162

0.483482 0.0967971 0.291867
0.0967971 0.256462 0.0974177
0.291867 0.0974177 0.274212

0.416485 0.106755 0.302435
0.106755 0.266618 0.12226
0.302435 0.12226 0.316548

0.362522 0.0899404 0.299014
0.0899404 0.286679 0.13672
0.299014 0.13672 0.363409

0.313863 0.0533423 0.280462
0.0533423 0.293214 0.129703
0.280462 0.129703 0.4006

0.264298 0.0197126 0.251512
0.0197126 0.283952 0.102434
0.251512 0.102434 0.42799

0.212656 -0.00450475 0.214337
-0.00450475 0.267541 0.0712682
0.214337 0.0712682 0.436992

0.160519 -0.0131998 0.177913
-0.0131998 0.251984 0.0563823
0.177913 0.0563823 0.443404

0.128738 -0.0202942 0.136703
-0.0202942 0.250619 0.0545105
0.136703 0.0545105 0.480226

0.0914231 -0.0420264 0.0194545
-0.0420264 0.241022 0.0219465
0.0194545 0.0219465 0.610253

0.0882554 -0.0488507 -0.0283889
-0.0488507 0.247226 -0.0189118
-0.0283889 -0.0189118 0.632381

0.105791 -0.0461515 -0.0878561
-0.0461515 0.269823 -0.0593319
-0.0878561 -0.0593319 0.649398

0.127486 -0.035484 -0.151999
-0.035484 0.293302 -0.095314
-0.151999 -0.095314 0.63761

0.166452 -0.0178243 -0.202436
-0.0178243 0.32517 -0.123638
-0.202436 -0.123638 0.608763

0.197458 0.00404329 -0.239609
0.00404329 0.350837 -0.138377
-0.239609 -0.138377 0.57655

0.250643 0.0197645 -0.267871
0.0197645 0.360243 -0.126059
-0.267871 -0.126059 0.527634

0.300121 0.0265217 -0.28238
0.0265217 0.348304 -0.0831396
-0.28238 -0.0831396 0.470087

0.326269 0.022906 -0.275363
0.022906 0.324007 -0.0445937
-0.275363 -0.0445937 0.397842

0.358535 0.0240456 -0.256344
0.0240456 0.31011 -0.0191678
-0.256344 -0.0191678 0.331876

0.369908 0.0302635 -0.227612
0.0302635 0.283698 -0.00838079
-0.227612 -0.00838079 0.273005

0.359082 0.0165936 -0.20255
0.0165936 0.284263 -0.0131243
-0.20255 -0.0131243 0.219647

0.3608 -0.0168512 -0.174797
-0.0168512 0.310822 -0.0156802
-0.174797 -0.0156802 0.191118

0.393739 -0.0441962 -0.161082
-0.0441962 0.317107 -0.0233039
-0.161082 -0.0233039 0.179352

0.429266 -0.0561691 -0.14719
-0.0561691 0.280949 -0.0271428
-0.14719 -0.0271428 0.153517

0.448349 -0.05732 -0.110951
-0.05732 0.23683 -0.0258025
-0.110951 -0.0258025 0.119413

0.437234 -0.040914 -0.0664173
-0.040914 0.20198 -0.0245968
-0.0664173 -0.0245968 0.0851273

0.28005 0.0183113 -0.272209
0.0183113 0.327786 -0.0269668
-0.272209 -0.0269668 0.433241

0.316718 0.0257754 -0.265236
0.0257754 0.307634 -0.00496124
-0.265236 -0.00496124 0.378556

0.353028 0.029402 -0.244993
0.029402 0.28862 0.0110795
-0.244993 0.0110795 0.327493

0.346415 0.0434091 -0.209027
0.0434091 0.242446 0.0167215
-0.209027 0.0167215 0.255763

0.378439 0.0457313 -0.19473
0.0457313 0.257285 -0.00189641
-0.19473 -0.00189641 0.225379

0.36837 0.0415691 -0.168783
0.0415691 0.280188 -0.0102683
-0.168783 -0.0102683 0.187726

0.350248 0.0287769 -0.150208
0.0287769 0.292155 -0.00970103
-0.150208 -0.00970103 0.160391

0.368679 -0.00136112 -0.142857
-0.00136112 0.28793 -0.00918652
-0.142857 -0.00918652 0.144439

0.422895 -0.0194583 -0.136289
-0.0194583 0.263908 -0.00999985
-0.136289 -0.00999985 0.141936

0.438291 -0.0287178 -0.10879
-0.0287178 0.219373 -0.00983544
-0.10879 -0.00983544 0.112585

0.431571 -0.0234191 -0.0708317
-0.0234191 0.194591 -0.0133337
-0.0708317 -0.0133337 0.0905523

0.0950064 -0.032194 0.0617868
-0.032194 0.24112 0.0459067
0.0617868 0.0459067 0.562781

0.0992477 -0.0190576 0.0976424
-0.0190576 0.241793 0.0448316
0.0976424 0.0448316 0.495847

0.0839729 0.0201479 -0.0146257
0.0201479 0.145671 0.0362615
-0.0146257 0.0362615 0.594551

0.0661407 0.00838958 0.0240909
0.00838958 0.121287 0.0219368
0.0240909 0.0219368 0.590589

0.0617637 0.00082896 0.0733745
0.00082896 0.100306 0.0261359
0.0733745 0.0261359 0.586716

0.0909957 0.00561296 0.130092
0.00561296 0.0959081 0.0346994
0.130092 0.0346994 0.583534

0.144432 0.0192127 0.192661
0.0192127 0.103119 0.0376692
0.192661 0.0376692 0.594186

0.227741 0.03677 0.266251
0.03677 0.119681 0.0312127
0.266251 0.0312127 0.60705

0.338878 0.0525773 0.337846
0.0525773 0.143456 0.0155617
0.337846 0.0155617 0.597033

0.456368 0.0576181 0.383092
0.0576181 0.164184 -0.00898398
0.383092 -0.00898398 0.544551

0.560498 0.0567831 0.386114
0.0567831 0.174343 -0.0305881
0.386114 -0.0305881 0.449336

0.65798 0.0618964 0.347455
0.0618964 0.188818 -0.0442695
0.347455 -0.0442695 0.348929

0.737271 0.0648181 0.276729
0.0648181 0.194656 -0.0576904
0.276729 -0.0576904 0.261495

0.777133 0.065693 0.182785
0.065693 0.186351 -0.0701963
0.182785 -0.0701963 0.193337

0.788051 0.0729796 0.0824717
0.0729796 0.187628 -0.0789398
0.0824717 -0.0789398 0.165844

0.760958 0.0780542 0.00348018
0.0780542 0.191262 -0.0844152
0.00348018 -0.0844152 0.168104

0.697748 0.0846534 -0.0316091
0.0846534 0.199367 -0.0900141
-0.0316091 -0.0900141 0.166323

0.628383 0.0928772 -0.0406183
0.0928772 0.222091 -0.0985023
-0.0406183 -0.0985023 0.147347

0.559552 0.0890596 -0.11838
0.0890596 0.174074 -0.0825407
-0.11838 -0.0825407 0.141519

0.492912 0.0856293 -0.185453
0.0856293 0.141553 -0.0775019
-0.185453 -0.0775019 0.161102

0.430443 0.0684012 -0.248886
0.0684012 0.116517 -0.073741
-0.248886 -0.073741 0.217656

0.406415 0.0367408 -0.279694
0.0367408 0.102405 -0.0503791
-0.279694 -0.0503791 0.297889

0.432314 -0.00176829 -0.291009
-0.00176829 0.0798061 -0.00930581
-0.291009 -0.00930581 0.368927

0.464569 -0.0605802 -0.290477
-0.0605802 0.0890647 0.0199413
-0.290477 0.0199413 0.455712

0.444297 -0.118452 -0.288502
-0.118452 0.119746 0.063316
-0.288502 0.063316 0.518174

0.365455 -0.129128 -0.255697
-0.129128 0.150374 0.101919
-0.255697 0.101919 0.533355

0.275858 -0.116521 -0.214121
-0.116521 0.15914 0.110408
-0.214121 0.110408 0.514367

0.204773 -0.101989 -0.178855
-0.101989 0.155758 0.105306
-0.178855 0.105306 0.505696

0.166129 -0.091192 -0.149437
-0.091192 0.161251 0.100557
-0.149437 0.100557 0.521179

0.147429 -0.0832564 -0.122359
-0.0832564 0.168601 0.10075
-0.122359 0.10075 0.57493

0.13285 -0.078171 -0.0919606
-0.078171 0.184558 0.105924
-0.0919606 0.105924 0.657894

0.109115 -0.0630304 -0.0171012
-0.0630304 0.192894 0.105949
-0.0171012 0.105949 0.721182

0.109987 -0.0450723 0.0882874
-0.0450723 0.191921 0.0878221
0.0882874 0.0878221 0.730257

0.158734 -0.0333643 0.198218
-0.0333643 0.192301 0.0665919
0.198218 0.0665919 0.710053

0.2504 -0.0282377 0.298686
-0.0282377 0.193402 0.0535399
0.298686 0.0535399 0.670719

0.381963 -0.0233795 0.383692
-0.0233795 0.196901 0.0468561
0.383692 0.0468561 0.613058

0.535058 -0.0204699 0.430513
-0.0204699 0.197796 0.0439518
0.430513 0.0439518 0.519416

0.664075 -0.0242243 0.406268
-0.0242243 0.191096 0.0396771
0.406268 0.0396771 0.40273

0.701071 -0.0113315 0.31966
-0.0113315 0.167142 0.0340346
0.31966 0.0340346 0.29542

0.6537 0.0187348 0.238661
0.0187348 0.12853 0.0208852
0.238661 0.0208852 0.204897

0.595407 0.04053 0.178233
0.04053 0.0963337 0.00768082
0.178233 0.00768082 0.118855

0.643446 0.0689257 0.0351038
0.0689257 0.171424 0.026697
0.0351038 0.026697 0.0822181

0.676777 0.0616023 -0.0333666
0.0616023 0.200097 0.0366104
-0.0333666 0.0366104 0.0972738

0.65929 0.0402252 -0.109976
0.0402252 0.197134 0.0353834
-0.109976 0.0353834 0.110113

0.603496 0.0182942 -0.17774
0.0182942 0.189717 0.0342445
-0.17774 0.0342445 0.149328

0.512176 0.00809927 -0.22113
0.00809927 0.18845 0.0381066
-0.22113 0.0381066 0.217384

0.408141 0.00515532 -0.235607
0.00515532 0.189475 0.0449457
-0.235607 0.0449457 0.288499

0.313936 0.0101784 -0.2225
0.0101784 0.191687 0.0513448
-0.2225 0.0513448 0.343964

0.239143 0.0101254 -0.207065
0.0101254 0.189437 0.052892
-0.207065 0.052892 0.407585

0.171249 0.0104093 -0.188991
0.0104093 0.169065 0.0494768
-0.188991 0.0494768 0.474945

0.162191 0.00636816 -0.167329
0.00636816 0.190188 0.0807564
-0.167329 0.0807564 0.576326

0.192545 0.00653711 -0.152529
0.00653711 0.232515 0.124123
-0.152529 0.124123 0.675574

0.179232 0.0251868 -0.129752
0.0251868 0.217035 0.119118
-0.129752 0.119118 0.612552

0.13879 0.0305773 -0.0854167
0.0305773 0.211915 0.108219
-0.0854167 0.108219 0.51571

0.11452 0.0187765 -0.0680168
0.0187765 0.18147 0.0786794
-0.0680168 0.0786794 0.546397

0.0897375 0.0185924 -0.0394896
0.0185924 0.170692 0.0533643
-0.0394896 0.0533643 0.554021

0.61198 0.066884 0.0888181
0.066884 0.129941 0.010946
0.0888181 0.010946 0.0721157

0.583758 0.0553773 0.124566
0.0553773 0.105626 0.00957785
0.124566 0.00957785 0.0851858

0.382186 -0.0171048 0.00352655
-0.0171048 0.20331 -0.0257955
0.00352655 -0.0257955 0.0825526

0.35894 -0.0148958 0.009954
-0.0148958 0.208289 -0.016776
0.009954 -0.016776 0.0810653

0.371376 -0.0239065 0.0352228
-0.0239065 0.217417 -0.0375853
0.0352228 -0.0375853 0.0981323

0.389175 -0.0192909 0.0640024
-0.0192909 0.213391 -0.049413
0.0640024 -0.049413 0.111314

0.403309 -0.0120697 0.0944735
-0.0120697 0.230747 -0.052084
0.0944735 -0.052084 0.134062

0.410168 0.0119159 0.12436
0.0119159 0.231825 -0.0377948
0.12436 -0.0377948 0.134542

0.393959 0.0562186 0.15262
0.0562186 0.221345 -0.00796427
0.15262 -0.00796427 0.136701

0.361944 0.079056 0.180202
0.079056 0.234774 0.0182275
0.180202 0.0182275 0.169398

0.327826 0.0852916 0.20641
0.0852916 0.248616 0.0422223
0.20641 0.0422223 0.220164

0.28133 0.079499 0.229658
0.079499 0.250668 0.0567842
0.229658 0.0567842 0.293877

0.245565 0.0848086 0.238811
0.0848086 0.28778 0.0631131
0.238811 0.0631131 0.400481

0.226798 0.09618 0.221627
0.09618 0.370335 0.0856347
0.221627 0.0856347 0.467058

0.187644 0.0777059 0.192466
0.0777059 0.428365 0.0943267
0.192466 0.0943267 0.461597

0.157228 0.0318177 0.180104
0.0318177 0.433453 0.0672656
0.180104 0.0672656 0.476326

0.151091 -0.00749869 0.182273
-0.00749869 0.444845 0.0318567
0.182273 0.0318567 0.549801

0.127958 -0.0202774 0.156495
-0.0202774 0.446027 -0.0149076
0.156495 -0.0149076 0.638001

0.0833981 -0.0179536 0.100321
-0.0179536 0.403421 -0.0436277
0.100321 -0.0436277 0.668158

0.0748675 -0.00948365 0.0396884
-0.00948365 0.352924 -0.0538269
0.0396884 -0.0538269 0.650278

0.0851365 0.00188446 -0.0142845
0.00188446 0.307847 -0.0547746
-0.0142845 -0.0547746 0.619954

0.0982188 0.0115153 -0.0668156
0.0115153 0.289173 -0.0613884
-0.0668156 -0.0613884 0.599444

0.110384 0.0182475 -0.11874
0.0182475 0.269622 -0.0680032
-0.11874 -0.0680032 0.568698

0.140018 0.0237064 -0.168007
0.0237064 0.255439 -0.0690136
-0.168007 -0.0690136 0.525345

0.18486 0.0304277 -0.211968
0.0304277 0.242494 -0.0649145
-0.211968 -0.0649145 0.483648

0.246501 0.037465 -0.247908
0.037465 0.234095 -0.0533722
-0.247908 -0.0533722 0.446023

0.302538 0.0350933 -0.267899
0.0350933 0.212338 -0.0336264
-0.267899 -0.0336264 0.389723

0.361347 0.0237228 -0.275562
0.0237228 0.197246 -0.0116731
-0.275562 -0.0116731 0.332871

0.4351 0.00265856 -0.270737
0.00265856 0.203094 0.012147
-0.270737 0.012147 0.290297

0.475567 -0.028483 -0.240074
-0.028483 0.210895 0.0317264
-0.240074 0.0317264 0.233207

0.622088 -0.0802141 -0.144939
-0.0802141 0.244929 0.0248304
-0.144939 0.0248304 0.104384

0.709071 -0.0806668 -0.0973154
-0.0806668 0.27198 0.0222975
-0.0973154 0.0222975 0.0854012

0.816238 -0.0774922 -0.0316482
-0.0774922 0.312947 0.0230098
-0.0316482 0.0230098 0.0786832

0.891164 -0.0677911 0.0570794
-0.0677911 0.352822 0.0232291
0.0570794 0.0232291 0.0822621

0.886863 -0.0471643 0.144476
-0.0471643 0.374305 0.0238566
0.144476 0.0238566 0.105237

0.804852 -0.014254 0.208509
-0.014254 0.365557 0.0275126
0.208509 0.0275126 0.137028

0.697334 0.0299769 0.250455
0.0299769 0.342463 0.040558
0.250455 0.040558 0.170157

0.614291 0.0758116 0.281276
0.0758116 0.336509 0.0665223
0.281276 0.0665223 0.218217

0.529712 0.11041 0.30237
0.11041 0.327099 0.0951337
0.30237 0.0951337 0.259212

0.455118 0.107979 0.309211
0.107979 0.315254 0.106682
0.309211 0.106682 0.297737

0.382455 0.0754988 0.298782
0.0754988 0.302622 0.0997087
0.298782 0.0997087 0.334635

0.313455 0.0389719 0.268975
0.0389719 0.293474 0.0882922
0.268975 0.0882922 0.363561

0.253125 0.0119073 0.233692
0.0119073 0.273904 0.0732544
0.233692 0.0732544 0.387858

0.204232 -0.00386434 0.19683
-0.00386434 0.263014 0.0556623
0.19683 0.0556623 0.403834

0.158316 -0.0110203 0.161865
-0.0110203 0.256346 0.043334
0.161865 0.043334 0.413587

0.131236 -0.014438 0.133016
-0.014438 0.254107 0.0382148
0.133016 0.0382148 0.431801

0.116642 -0.0122315 0.110494
-0.0122315 0.253563 0.0350815
0.110494 0.0350815 0.448209

0.102912 -0.00570877 0.0878805
-0.00570877 0.24629 0.033282
0.0878805 0.033282 0.447164

0.0904709 -0.0126543 0.0615135
-0.0126543 0.228839 0.0333908
0.0615135 0.0333908 0.495126

0.0845602 -0.0182494 0.0343163
-0.0182494 0.215806 0.0201576
0.0343163 0.0201576 0.541175

0.0778302 -0.0254894 0.00301647
-0.0254894 0.215258 -0.00136431
0.00301647 -0.00136431 0.564873

0.0830802 -0.0291217 -0.0461832
-0.0291217 0.227795 -0.0280744
-0.0461832 -0.0280744 0.592569

0.109051 -0.0258592 -0.104067
-0.0258592 0.255226 -0.065467
-0.104067 -0.065467 0.62077

0.141811 -0.0192237 -0.165942
-0.0192237 0.288964 -0.0891719
-0.165942 -0.0891719 0.610699

0.188587 -0.00789746 -0.217521
-0.00789746 0.321373 -0.0994946
-0.217521 -0.0994946 0.567318

0.223819 0.00369225 -0.251996
0.00369225 0.349477 -0.104717
-0.251996 -0.104717 0.540365

0.553341 -0.0726369 -0.176555
-0.0726369 0.227681 0.0307809
-0.176555 0.0307809 0.133145

0.466973 -0.0507872 -0.178252
-0.0507872 0.209717 0.0278739
-0.178252 0.0278739 0.149646

0.391229 -0.0140366 -0.0241265
-0.0140366 0.196109 -0.0100814
-0.0241265 -0.0100814 0.0787726

0.365068 -0.00502802 -0.0135335
-0.00502802 0.205585 0.00039313
-0.0135335 0.00039313 0.0776923

0.33563 0.000264048 -0.000531758
0.000264048 0.216355 0.0145395
-0.000531758 0.0145395 0.0792831

0.334943 -0.0109536 0.0165289
-0.0109536 0.221991 -0.00422665
0.0165289 -0.00422665 0.0838811

0.340561 -0.0221103 0.0348574
-0.0221103 0.216996 -0.0239229
0.0348574 -0.0239229 0.0870626

0.368236 -0.0311978 0.060022
-0.0311978 0.232693 -0.0381095
0.060022 -0.0381095 0.111868

0.383182 -0.0237731 0.0839382
-0.0237731 0.232616 -0.0352707
0.0839382 -0.0352707 0.119236

0.369722 0.00932373 0.107155
0.00932373 0.21251 -0.0177782
0.107155 -0.0177782 0.11361

0.353914 0.0468493 0.135711
0.0468493 0.230502 0.00314024
0.135711 0.00314024 0.13966

0.322228 0.0625677 0.162
0.0625677 0.261648 0.0237939
0.162 0.0237939 0.183956

0.288938 0.0629513 0.183885
0.0629513 0.287045 0.0429529
0.183885 0.0429529 0.243075

0.243283 0.0590733 0.196632
0.0590733 0.292853 0.0558595
0.196632 0.0558595 0.308589

0.210267 0.0661312 0.198993
0.0661312 0.31258 0.0703436
0.198993 0.0703436 0.388513

0.183561 0.0510681 0.186573
0.0510681 0.345759 0.070394
0.186573 0.070394 0.440869

0.142789 0.0202195 0.159937
0.0202195 0.384014 0.0667012
0.159937 0.0667012 0.418252

0.140506 -0.0124653 0.153037
-0.0124653 0.420801 0.0538689
0.153037 0.0538689 0.438691

0.149846 -0.040955 0.162344
-0.040955 0.43047 0.0330701
0.162344 0.0330701 0.530965

0.136319 -0.0494879 0.148119
-0.0494879 0.439424 0.00245813
0.148119 0.00245813 0.64609

0.0959086 -0.0386 0.101907
-0.0386 0.408109 -0.0254997
0.101907 -0.0254997 0.69073

0.0702081 -0.0246705 0.0438676
-0.0246705 0.343579 -0.0425458
0.0438676 -0.0425458 0.646979

0.078678 -0.0112007 -0.00828505
-0.0112007 0.303839 -0.0546018
-0.00828505 -0.0546018 0.612118

0.0948767 0.000798319 -0.0559274
0.000798319 0.285498 -0.0633298
-0.0559274 -0.0633298 0.59466

0.10418 0.01152 -0.0988547
0.01152 0.265973 -0.0678047
-0.0988547 -0.0678047 0.561261

0.119272 0.0177682 -0.13841
0.0177682 0.247919 -0.0660092
-0.13841 -0.0660092 0.50436

0.160945 0.0272695 -0.176882
0.0272695 0.24337 -0.0684817
-0.176882 -0.0684817 0.469232

0.207233 0.037132 -0.209143
0.037132 0.227763 -0.061946
-0.209143 -0.061946 0.429745

0.254645 0.0381699 -0.228555
0.0381699 0.207839 -0.044232
-0.228555 -0.044232 0.376881

0.29709 0.0287251 -0.230934
0.0287251 0.190199 -0.021857
-0.230934 -0.021857 0.311415

0.343654 0.0129147 -0.220551
0.0129147 0.184266 -0.00132192
-0.220551 -0.00132192 0.256145

0.369907 -0.0121452 -0.194013
-0.0121452 0.180754 0.0166666
-0.194013 0.0166666 0.200207

0.397174 -0.0284542 -0.160316
-0.0284542 0.194473 0.0158847
-0.160316 0.0158847 0.160653

0.406595 -0.032385 -0.126822
-0.032385 0.187814 0.00280075
-0.126822 0.00280075 0.12136

0.469032 -0.0561222 -0.13018
-0.0561222 0.216242 0.0115658
-0.13018 0.0115658 0.12005

0.527478 -0.0710512 -0.121651
-0.0710512 0.250789 0.017036
-0.121651 0.017036 0.108496

0.606935 -0.0774386 -0.0972181
-0.0774386 0.275701 0.0186627
-0.0972181 0.0186627 0.0938121

0.692001 -0.0804127 -0.05775
-0.0804127 0.304909 0.0171699
-0.05775 0.0171699 0.0817316

0.7857 -0.0726922 0.000580492
-0.0726922 0.347446 0.0134216
0.000580492 0.0134216 0.079492

0.850744 -0.0522772 0.0739692
-0.0522772 0.383126 0.00775372
0.0739692 0.00775372 0.0833042

0.86146 -0.0243742 0.145107
-0.0243742 0.407603 0.00479013
0.145107 0.00479013 0.103111

0.818363 0.00969588 0.201182
0.00969588 0.415729 0.0112428
0.201182 0.0112428 0.132799

0.748689 0.0494368 0.241363
0.0494368 0.416352 0.0308284
0.241363 0.0308284 0.168779

0.676501 0.0909056 0.272984
0.0909056 0.413695 0.0493687
0.272984 0.0493687 0.214571

0.594487 0.111256 0.290502
0.111256 0.393343 0.0700791
0.290502 0.0700791 0.250094

0.490263 0.100872 0.299128
0.100872 0.343333 0.0728887
0.299128 0.0728887 0.281314

0.397415 0.0621569 0.28695
0.0621569 0.308223 0.0555407
0.28695 0.0555407 0.320872

0.312426 0.0310947 0.256246
0.0310947 0.291247 0.0494354
0.256246 0.0494354 0.35089

0.245182 0.0136244 0.219918
0.0136244 0.270485 0.0495877
0.219918 0.0495877 0.370685

0.192984 0.00344056 0.181625
0.00344056 0.263057 0.0472133
0.181625 0.0472133 0.383459

0.152522 -0.00567693 0.147917
-0.00567693 0.261164 0.0393069
0.147917 0.0393069 0.394276

0.128202 -0.00876225 0.12448
-0.00876225 0.256093 0.0354847
0.12448 0.0354847 0.413779

0.121987 -0.00140491 0.111549
-0.00140491 0.261015 0.035158
0.111549 0.035158 0.413724

0.107928 0.00712324 0.0981246
0.00712324 0.253945 0.0308703
0.0981246 0.0308703 0.407497

0.0924938 0.000370966 0.0669082
0.000370966 0.231981 0.0282055
0.0669082 0.0282055 0.443141

0.0775388 -0.0064879 0.0340194
-0.0064879 0.204121 0.0221856
0.0340194 0.0221856 0.474524

0.0576273 -0.00641094 0.0126464
-0.00641094 0.172028 0.00533748
0.0126464 0.00533748 0.522665

0.0861794 -0.012426 -0.0105913
-0.012426 0.204311 -0.0119178
-0.0105913 -0.0119178 0.552101

0.0854824 -0.0139393 -0.0582223
-0.0139393 0.202536 -0.0335629
-0.0582223 -0.0335629 0.565501

0.11105 -0.00993058 -0.120101
-0.00993058 0.233665 -0.0588231
-0.120101 -0.0588231 0.581359

0.153182 -0.0102347 -0.186322
-0.0102347 0.279363 -0.0635537
-0.186322 -0.0635537 0.569445

0.205853 0.00188391 -0.238106
0.00188391 0.318577 -0.0569271
-0.238106 -0.0569271 0.531217

0.245376 0.0111799 -0.265146
0.0111799 0.347125 -0.061256
-0.265146 -0.061256 0.480206

0.0665416 0.0170806 -0.0035499
0.0170806 0.151298 0.0344497
-0.0035499 0.0344497 0.55714

0.0635001 0.0143989 0.0343134
0.0143989 0.143185 0.0205031
0.0343134 0.0205031 0.572571

0.0761346 0.0172403 0.0827766
0.0172403 0.136299 0.0148222
0.0827766 0.0148222 0.575372

0.109469 0.0261788 0.135725
0.0261788 0.133241 0.0162621
0.135725 0.0162621 0.566795

0.168347 0.0415616 0.194067
0.0415616 0.138583 0.0185871
0.194067 0.0185871 0.565998

0.250553 0.0604414 0.260516
0.0604414 0.151439 0.0160972
0.260516 0.0160972 0.573644

0.357737 0.0742151 0.327628
0.0742151 0.167104 0.00245137
0.327628 0.00245137 0.568661

0.470353 0.0757401 0.377004
0.0757401 0.18195 -0.020188
0.377004 -0.020188 0.533776

0.576354 0.0704751 0.389962
0.0704751 0.202303 -0.0464363
0.389962 -0.0464363 0.470212

0.660339 0.0667006 0.359551
0.0667006 0.222185 -0.0688393
0.359551 -0.0688393 0.389971

0.711081 0.0687075 0.297473
0.0687075 0.224726 -0.0836444
0.297473 -0.0836444 0.304635

0.749327 0.0768436 0.218156
0.0768436 0.228589 -0.0953427
0.218156 -0.0953427 0.238375

0.782018 0.0903942 0.138088
0.0903942 0.240855 -0.104634
0.138088 -0.104634 0.202136

0.778283 0.102258 0.0716427
0.102258 0.248393 -0.11163
0.0716427 -0.11163 0.185558

0.730878 0.106127 0.035645
0.106127 0.256909 -0.115676
0.035645 -0.115676 0.172846

0.683882 0.099644 0.0286438
0.099644 0.285647 -0.116826
0.0286438 -0.116826 0.161002

0.651486 0.0844039 0.0303759
0.0844039 0.326727 -0.112261
0.0303759 -0.112261 0.15614

0.570015 0.0878032 -0.0368012
0.0878032 0.256583 -0.104158
-0.0368012 -0.104158 0.14179

0.501507 0.0826661 -0.100426
0.0826661 0.204173 -0.0952335
-0.100426 -0.0952335 0.144748

0.449334 0.0736002 -0.154808
0.0736002 0.170529 -0.0871857
-0.154808 -0.0871857 0.169076

0.404942 0.0551234 -0.202076
0.0551234 0.129232 -0.0699278
-0.202076 -0.0699278 0.210394

0.379665 0.0240729 -0.238448
0.0240729 0.0984492 -0.0356861
-0.238448 -0.0356861 0.278203

0.3711 -0.0080183 -0.245902
-0.0080183 0.0838672 -0.000931429
-0.245902 -0.000931429 0.358314

0.351126 -0.0547567 -0.229944
-0.0547567 0.0863734 0.0204449
-0.229944 0.0204449 0.412205

0.328502 -0.0914707 -0.207088
-0.0914707 0.117177 0.0438727
-0.207088 0.0438727 0.453364

0.283489 -0.110815 -0.180684
-0.110815 0.143193 0.0695684
-0.180684 0.0695684 0.459155

0.231587 -0.115005 -0.158235
-0.115005 0.170058 0.0825727
-0.158235 0.0825727 0.454945

0.182418 -0.106949 -0.134774
-0.106949 0.185938 0.0858671
-0.134774 0.0858671 0.464491

0.143137 -0.0946392 -0.113831
-0.0946392 0.185631 0.0837766
-0.113831 0.0837766 0.489807

0.131606 -0.0895968 -0.0936243
-0.0895968 0.1964 0.090574
-0.0936243 0.090574 0.549089

0.122156 -0.0858038 -0.0627197
-0.0858038 0.205086 0.100474
-0.0627197 0.100474 0.620444

0.117027 -0.0767899 0.00120507
-0.0767899 0.221667 0.0993748
0.00120507 0.0993748 0.6777

0.130588 -0.0634775 0.0972829
-0.0634775 0.230732 0.0863569
0.0972829 0.0863569 0.694171

0.176926 -0.0573529 0.194063
-0.0573529 0.22544 0.060671
0.194063 0.060671 0.657287

0.255571 -0.0596411 0.275959
-0.0596411 0.214773 0.0338402
0.275959 0.0338402 0.607896

0.369566 -0.0639253 0.351684
-0.0639253 0.205093 0.0177718
0.351684 0.0177718 0.570351

0.532357 -0.0689377 0.413114
-0.0689377 0.210666 0.0170067
0.413114 0.0170067 0.526844

0.671298 -0.0634037 0.406654
-0.0634037 0.206226 0.0265026
0.406654 0.0265026 0.433197

0.682346 -0.0315261 0.329156
-0.0315261 0.167645 0.0343574
0.329156 0.0343574 0.316394

0.623256 0.00741734 0.254953
0.00741734 0.13218 0.0354038
0.254953 0.0354038 0.227596

0.580482 0.0333159 0.198156
0.0333159 0.120437 0.0302408
0.198156 0.0302408 0.164267

0.538676 0.0413415 0.144125
0.0413415 0.114156 0.0271741
0.144125 0.0271741 0.117851

0.51937 0.0457061 0.0897138
0.0457061 0.127342 0.0314806
0.0897138 0.0314806 0.0999168

0.591977 0.0623353 0.072379
0.0623353 0.124075 0.0197219
0.072379 0.0197219 0.0834666

0.664361 0.0844372 0.05187
0.0844372 0.156386 0.0177541
0.05187 0.0177541 0.0868672

0.71224 0.102232 0.0165169
0.102232 0.207674 0.0290964
0.0165169 0.0290964 0.102644

0.725138 0.0915183 -0.0462132
0.0915183 0.232026 0.0401173
-0.0462132 0.0401173 0.12032

0.720518 0.0687804 -0.123893
0.0687804 0.23755 0.034402
-0.123893 0.034402 0.146565

0.64089 0.0373492 -0.187357
0.0373492 0.206039 0.0338309
-0.187357 0.0338309 0.170424

0.544495 0.0243057 -0.227697
0.0243057 0.197036 0.0418365
-0.227697 0.0418365 0.234598

0.441687 0.0224701 -0.245583
0.0224701 0.19361 0.0445767
-0.245583 0.0445767 0.297431

0.358906 0.0258447 -0.237725
0.0258447 0.197503 0.0476862
-0.237725 0.0476862 0.344939

0.281356 0.0336969 -0.219074
0.0336969 0.198583 0.0496614
-0.219074 0.0496614 0.389573

0.223623 0.0236516 -0.216648
0.0236516 0.182631 0.0484934
-0.216648 0.0484934 0.446281

0.216094 0.00875548 -0.210607
0.00875548 0.208811 0.087003
-0.210607 0.087003 0.534932

0.194331 0.0149644 -0.187964
0.0149644 0.23092 0.116553
-0.187964 0.116553 0.555784

0.172667 0.0339966 -0.162359
0.0339966 0.234894 0.115528
-0.162359 0.115528 0.532349

0.153286 0.039901 -0.128415
0.039901 0.233391 0.0990065
-0.128415 0.0990065 0.471074

0.119038 0.027657 -0.0992433
0.027657 0.203362 0.0720505
-0.0992433 0.0720505 0.431875

0.0642113 0.0246031 -0.0713082
0.0246031 0.159966 0.0969144
-0.0713082 0.0969144 0.413282

0.104803 0.0179841 -0.0538286
0.0179841 0.185694 0.0666018
-0.0538286 0.0666018 0.473447

0.081596 0.0145848 -0.0276971
0.0145848 0.172005 0.0449546
-0.0276971 0.0449546 0.490525

0.333549 -0.0170308 0.0618789
-0.0170308 0.22271 -0.0221723
0.0618789 -0.0221723 0.0922862

0.347163 0.00491838 0.0928795
0.00491838 0.200238 -0.00530485
0.0928795 -0.00530485 0.110055

0.321891 0.0315375 0.123792
0.0315375 0.210657 0.0124057
0.123792 0.0124057 0.137232

0.290121 0.034453 0.149728
0.034453 0.256857 0.0252999
0.149728 0.0252999 0.188853

0.25283 0.0312568 0.165862
0.0312568 0.282993 0.041452
0.165862 0.041452 0.241301

0.214675 0.0254412 0.173209
0.0254412 0.291422 0.0488429
0.173209 0.0488429 0.294274

0.187614 0.0202811 0.179845
0.0202811 0.28999 0.0516376
0.179845 0.0516376 0.352268

0.183477 0.0045124 0.17777
0.0045124 0.315941 0.0546717
0.17777 0.0546717 0.411659

0.158047 -0.0247573 0.158467
-0.0247573 0.347026 0.046828
0.158467 0.046828 0.410788

0.159415 -0.0570986 0.150905
-0.0570986 0.382825 0.0227254
0.150905 0.0227254 0.428184

0.139954 -0.0648608 0.138098
-0.0648608 0.419417 0.0181908
0.138098 0.0181908 0.644576

0.0992756 -0.0570097 0.0978019
-0.0570097 0.393767 -0.00384306
0.0978019 -0.00384306 0.68757

0.0762796 -0.0407405 0.0470142
-0.0407405 0.336077 -0.0270684
0.0470142 -0.0270684 0.646207

0.0838492 -0.0220819 -0.00030844
-0.0220819 0.304143 -0.0483854
-0.00030844 -0.0483854 0.6066

0.0931772 -0.0116638 -0.0410651
-0.0116638 0.280253 -0.0570557
-0.0410651 -0.0570557 0.57185

0.0916866 -0.00330603 -0.0782598
-0.00330603 0.257287 -0.0507421
-0.0782598 -0.0507421 0.520679

0.106456 0.0033096 -0.111004
0.0033096 0.252359 -0.0559226
-0.111004 -0.0559226 0.4695

0.133974 0.0128417 -0.141142
0.0128417 0.240301 -0.0613635
-0.141142 -0.0613635 0.43454

0.166741 0.021169 -0.166524
0.021169 0.221753 -0.0534353
-0.166524 -0.0534353 0.399216

0.198604 0.0231904 -0.182628
0.0231904 0.199529 -0.0367102
-0.182628 -0.0367102 0.345812

0.237907 0.0211201 -0.187415
0.0211201 0.187353 -0.0229363
-0.187415 -0.0229363 0.290645

0.274609 0.0117082 -0.181653
0.0117082 0.170296 -0.00962229
-0.181653 -0.00962229 0.23403

0.321917 0.00513271 -0.174983
0.00513271 0.155612 -0.00678893
-0.174983 -0.00678893 0.198941

0.337942 -0.0110083 -0.153885
-0.0110083 0.157623 -0.00109583
-0.153885 -0.00109583 0.156442

0.376003 -0.0117663 -0.132763
-0.0117663 0.175613 -0.00662076
-0.132763 -0.00662076 0.142922

0.401051 -0.0110697 -0.114583
-0.0110697 0.163489 -0.0129265
-0.114583 -0.0129265 0.11846

0.433533 -0.0275282 -0.109091
-0.0275282 0.180275 -0.00554496
-0.109091 -0.00554496 0.104218

0.471887 -0.0502578 -0.0963583
-0.0502578 0.22912 -0.000155361
-0.0963583 -0.000155361 0.103505

0.529483 -0.060092 -0.0831061
-0.060092 0.268047 0.00527195
-0.0831061 0.00527195 0.0977754

0.591124 -0.064222 -0.0593346
-0.064222 0.293155 0.00594038
-0.0593346 0.00594038 0.0862064

0.657053 -0.0630546 -0.0243362
-0.0630546 0.327515 0.000267785
-0.0243362 0.000267785 0.0794386

0.732351 -0.0512035 0.0233256
-0.0512035 0.364854 -0.00915767
0.0233256 -0.00915767 0.0801319

0.792544 -0.0275057 0.0796508
-0.0275057 0.395902 -0.0200734
0.0796508 -0.0200734 0.0875582

0.820982 0.00244571 0.138348
0.00244571 0.4246 -0.0243177
0.138348 -0.0243177 0.106913

0.814629 0.0337192 0.191402
0.0337192 0.452562 -0.0168673
0.191402 -0.0168673 0.134825

0.776439 0.0633617 0.22928
0.0633617 0.473194 -0.00325049
0.22928 -0.00325049 0.166447

0.694712 0.0845828 0.25508
0.0845828 0.4633 0.0109502
0.25508 0.0109502 0.190123

0.415615 0.0627551 0.288361
0.0627551 0.304877 0.0307528
0.288361 0.0307528 0.325132

0.310598 0.0345378 0.255489
0.0345378 0.28765 0.0273169
0.255489 0.0273169 0.356012

0.235194 0.0186694 0.214845
0.0186694 0.271379 0.0304773
0.214845 0.0304773 0.371992

0.180143 0.0093709 0.174358
0.0093709 0.264179 0.0355365
0.174358 0.0355365 0.376615

0.145544 0.00186111 0.139233
0.00186111 0.265924 0.0360619
0.139233 0.0360619 0.389095

0.151176 -0.0579216 0.161438
-0.0579216 0.397947 0.028394
0.161438 0.028394 0.526012

0.182301 -0.0784197 0.161282
-0.0784197 0.376385 0.0226437
0.161282 0.0226437 0.491037

0.13278 0.0123095 0.129178
0.0123095 0.270587 0.0274552
0.129178 0.0274552 0.387833

0.126371 0.0272223 0.118858
0.0272223 0.267168 0.0170011
0.118858 0.0170011 0.386744

0.0970386 0.0181788 0.0846695
0.0181788 0.241084 0.0227936
0.0846695 0.0227936 0.402576

0.0818259 0.00815148 0.0419439
0.00815148 0.202309 0.0245915
0.0419439 0.0245915 0.442531

0.0770379 0.00238961 0.00659955
0.00238961 0.168462 0.0120202
0.00659955 0.0120202 0.494078

0.0750699 -0.00437238 -0.0114879
-0.00437238 0.182868 -0.00179642
-0.0114879 -0.00179642 0.512825

0.0672416 0.0148979 0.00474291
0.0148979 0.15575 0.0219745
0.00474291 0.0219745 0.510227

0.0718429 0.0194125 0.0420536
0.0194125 0.155397 0.00340499
0.0420536 0.00340499 0.523919

0.0935461 0.0274537 0.0857458
0.0274537 0.161426 -0.00812698
0.0857458 -0.00812698 0.531292

0.126917 0.0397346 0.133848
0.0397346 0.165815 -0.00609593
0.133848 -0.00609593 0.518549

0.184097 0.0564864 0.186603
0.0564864 0.177656 -0.000336819
0.186603 -0.000336819 0.515336

0.259838 0.0742345 0.246663
0.0742345 0.18949 0.00119352
0.246663 0.00119352 0.522161

0.354066 0.0870787 0.306703
0.0870787 0.199322 -0.00810517
0.306703 -0.00810517 0.520884

0.464475 0.0902079 0.35886
0.0902079 0.21037 -0.0277069
0.35886 -0.0277069 0.500703

0.586745 0.0812469 0.387562
0.0812469 0.239273 -0.0586052
0.387562 -0.0586052 0.469166

0.666029 0.0649424 0.370424
0.0649424 0.266632 -0.0917133
0.370424 -0.0917133 0.410923

0.695914 0.0613952 0.312425
0.0613952 0.27311 -0.111273
0.312425 -0.111273 0.329726

0.728914 0.0747735 0.241786
0.0747735 0.289211 -0.119927
0.241786 -0.119927 0.267388

0.756521 0.0946998 0.178448
0.0946998 0.30414 -0.124123
0.178448 -0.124123 0.221044

0.770809 0.110016 0.124714
0.110016 0.315762 -0.126917
0.124714 -0.126917 0.196049

0.752553 0.111916 0.0899723
0.111916 0.317471 -0.126629
0.0899723 -0.126629 0.179261

0.725274 0.104743 0.0818441
0.104743 0.340128 -0.12409
0.0818441 -0.12409 0.166295

0.716897 0.0846504 0.0921064
0.0846504 0.37462 -0.110296
0.0921064 -0.110296 0.149827

0.603537 0.0548236 0.0204071
0.0548236 0.334388 -0.0953918
0.0204071 -0.0953918 0.128563

0.516195 0.0704868 -0.0310402
0.0704868 0.282122 -0.100753
-0.0310402 -0.100753 0.136406

0.45942 0.0698762 -0.082181
0.0698762 0.222191 -0.0919318
-0.082181 -0.0919318 0.141441

0.413674 0.0583144 -0.126104
0.0583144 0.174791 -0.0805074
-0.126104 -0.0805074 0.159152

0.371742 0.0428074 -0.16262
0.0428074 0.124649 -0.0629006
-0.16262 -0.0629006 0.189012

0.343851 0.0211979 -0.191911
0.0211979 0.0943688 -0.0387358
-0.191911 -0.0387358 0.255296

0.306189 -0.00915949 -0.196904
-0.00915949 0.0772125 -0.0140728
-0.196904 -0.0140728 0.308461

0.271054 -0.0435664 -0.171838
-0.0435664 0.0892967 -0.00142699
-0.171838 -0.00142699 0.348823

0.23473 -0.0730461 -0.144151
-0.0730461 0.113903 0.0154087
-0.144151 0.0154087 0.367742

0.210531 -0.0948061 -0.123972
-0.0948061 0.14291 0.0380198
-0.123972 0.0380198 0.38126

0.18586 -0.103225 -0.112137
-0.103225 0.180271 0.0502666
-0.112137 0.0502666 0.41537

0.155342 -0.098241 -0.0984248
-0.098241 0.207632 0.0578316
-0.0984248 0.0578316 0.448889

0.126832 -0.0908284 -0.0822247
-0.0908284 0.217388 0.0659767
-0.0822247 0.0659767 0.484984

0.111781 -0.089135 -0.064541
-0.089135 0.220309 0.0792927
-0.064541 0.0792927 0.537436

0.111222 -0.0910918 -0.0356852
-0.0910918 0.231978 0.0945175
-0.0356852 0.0945175 0.602906

0.11951 -0.0900649 0.0199006
-0.0900649 0.25476 0.0979298
0.0199006 0.0979298 0.658518

0.137267 -0.0833065 0.104598
-0.0833065 0.267702 0.0857955
0.104598 0.0857955 0.670113

0.188906 -0.0845241 0.188411
-0.0845241 0.273362 0.0560411
0.188411 0.0560411 0.628496

0.24483 -0.0879179 0.254313
-0.0879179 0.257 0.020795
0.254313 0.020795 0.551502

0.329614 -0.100739 0.306569
-0.100739 0.234394 -0.00677014
0.306569 -0.00677014 0.508321

0.464758 -0.113562 0.359055
-0.113562 0.215252 -0.0105024
0.359055 -0.0105024 0.481143

0.595686 -0.107284 0.36982
-0.107284 0.208183 0.00814701
0.36982 0.00814701 0.439292

0.607762 -0.0650002 0.316027
-0.0650002 0.167341 0.0309728
0.316027 0.0309728 0.341887

0.560517 -0.0218725 0.252402
-0.0218725 0.135511 0.0407626
0.252402 0.0407626 0.253148

0.527185 0.00752744 0.202744
0.00752744 0.131639 0.0424902
0.202744 0.0424902 0.196774

0.496352 0.0273115 0.154811
0.0273115 0.139334 0.0439659
0.154811 0.0439659 0.156709

0.456685 0.0350208 0.103516
0.0350208 0.144749 0.0457304
0.103516 0.0457304 0.124291

0.433646 0.0318458 0.0529723
0.0318458 0.163167 0.0481335
0.0529723 0.0481335 0.11265

0.512409 0.0475821 0.0356913
0.0475821 0.14086 0.0376234
0.0356913 0.0376234 0.100587

0.601378 0.0722057 0.0180293
0.0722057 0.14957 0.0296973
0.0180293 0.0296973 0.09933

0.670718 0.0954743 0.00170774
0.0954743 0.16901 0.0263503
0.00170774 0.0263503 0.0970811

0.739655 0.12592 -0.0206523
0.12592 0.220277 0.0264733
-0.0206523 0.0264733 0.115026

0.776952 0.136793 -0.0684003
0.136793 0.280292 0.0391678
-0.0684003 0.0391678 0.186532

0.715073 0.10865 -0.140779
0.10865 0.259185 0.0364714
-0.140779 0.0364714 0.177728

0.631343 0.0639936 -0.202632
0.0639936 0.217911 0.036541
-0.202632 0.036541 0.198986

0.538121 0.0469966 -0.235973
0.0469966 0.191351 0.0399795
-0.235973 0.0399795 0.233959

0.436658 0.0461197 -0.25086
0.0461197 0.191647 0.0385446
-0.25086 0.0385446 0.278446

0.335684 0.0455004 -0.243154
0.0455004 0.192442 0.0425125
-0.243154 0.0425125 0.32343

0.277776 0.0404614 -0.22824
0.0404614 0.192464 0.0438011
-0.22824 0.0438011 0.360087

0.245165 0.0285991 -0.224157
0.0285991 0.197584 0.0506811
-0.224157 0.0506811 0.407585

0.222287 0.0166466 -0.214821
0.0166466 0.223827 0.0741588
-0.214821 0.0741588 0.444456

0.200634 0.0186303 -0.204523
0.0186303 0.251062 0.0850869
-0.204523 0.0850869 0.463286

0.171735 0.029522 -0.191396
0.029522 0.255019 0.0751496
-0.191396 0.0751496 0.465094

0.154373 0.0301408 -0.169379
0.0301408 0.253848 0.0670681
-0.169379 0.0670681 0.47581

0.121062 0.0241078 -0.133241
0.0241078 0.218813 0.0436154
-0.133241 0.0436154 0.457067

0.100703 0.0071423 -0.0897606
0.0071423 0.183719 0.0290506
-0.0897606 0.0290506 0.457441

0.0817963 0.0172058 -0.0508674
0.0172058 0.184422 0.0673689
-0.0508674 0.0673689 0.402633

0.232755 0.0108165 -0.251527
0.0108165 0.321504 -0.0187605
-0.251527 -0.0187605 0.483896

0.268599 0.02048 -0.256772
0.02048 0.303341 0.00753623
-0.256772 0.00753623 0.41162

0.293053 0.0253285 -0.241384
0.0253285 0.277092 0.0284069
-0.241384 0.0284069 0.352804

0.290977 0.0387339 -0.215247
0.0387339 0.241333 0.0313962
-0.215247 0.0313962 0.281144

0.331263 0.0544097 -0.221663
0.0544097 0.201898 0.0237573
-0.221663 0.0237573 0.262151

0.330579 0.0600533 -0.182441
0.0600533 0.203246 0.00885692
-0.182441 0.00885692 0.187183

0.354794 0.0763245 -0.156617
0.0763245 0.223917 0.000974143
-0.156617 0.000974143 0.152795

0.358944 0.0797651 -0.137719
0.0797651 0.260122 -0.00446664
-0.137719 -0.00446664 0.1386

0.355236 0.0674051 -0.129712
0.0674051 0.278307 -0.00343274
-0.129712 -0.00343274 0.128322

0.346462 0.0332524 -0.119997
0.0332524 0.278378 0.00735033
-0.119997 0.00735033 0.11717

0.386299 -0.00227901 -0.11617
-0.00227901 0.235909 0.0116699
-0.11617 0.0116699 0.113007

0.42545 -0.00271868 -0.0933891
-0.00271868 0.20213 0.00296768
-0.0933891 0.00296768 0.10314

0.414689 -0.0127199 -0.059241
-0.0127199 0.193317 -0.000690255
-0.059241 -0.000690255 0.0862655

0.382764 0.00321833 -0.0420984
0.00321833 0.19326 0.012645
-0.0420984 0.012645 0.0792867

0.35444 0.0146227 -0.020584
0.0146227 0.215152 0.0303783
-0.020584 0.0303783 0.0881656

0.333038 0.0151692 0.00190342
0.0151692 0.220425 0.0449071
0.00190342 0.0449071 0.0957626

0.316768 0.00955353 0.0162366
0.00955353 0.234491 0.0308946
0.0162366 0.0308946 0.093294

0.306192 -0.0036099 0.0278487
-0.0036099 0.222914 0.0102782
0.0278487 0.0102782 0.0834215

0.329322 -0.0132639 0.0438503
-0.0132639 0.222328 -0.00872449
0.0438503 -0.00872449 0.0940443

0.083921 0.0219646 0.0487594
0.0219646 0.172026 -0.0144257
0.0487594 -0.0144257 0.463911

0.108595 0.0341502 0.0908962
0.0341502 0.191472 -0.0190371
0.0908962 -0.0190371 0.468029

0.141757 0.048357 0.132127
0.048357 0.205233 -0.0147586
0.132127 -0.0147586 0.463855

0.190804 0.0626531 0.179669
0.0626531 0.216755 -0.0075329
0.179669 -0.0075329 0.462011

0.253532 0.0765917 0.231311
0.0765917 0.228018 -0.0049953
0.231311 -0.0049953 0.469276

0.338428 0.0878946 0.284488
0.0878946 0.234088 -0.0138731
0.284488 -0.0138731 0.468787

0.443465 0.0907163 0.336704
0.0907163 0.241973 -0.0334564
0.336704 -0.0334564 0.456206

0.585195 0.0801632 0.379078
0.0801632 0.277186 -0.0663308
0.379078 -0.0663308 0.450761

0.6743 0.0581226 0.37315
0.0581226 0.317486 -0.105351
0.37315 -0.105351 0.406467

0.689118 0.0553473 0.316942
0.0553473 0.334472 -0.128241
0.316942 -0.128241 0.3255

0.719387 0.0694707 0.256326
0.0694707 0.361505 -0.136546
0.256326 -0.136546 0.272523

0.748809 0.0893843 0.207042
0.0893843 0.379224 -0.134087
0.207042 -0.134087 0.229309

0.767032 0.102836 0.163124
0.102836 0.385415 -0.130231
0.163124 -0.130231 0.200248

0.757981 0.0829673 0.147029
0.0829673 0.410975 -0.113305
0.147029 -0.113305 0.169932

0.613031 0.00347466 0.0133772
0.00347466 0.326855 -0.0558727
0.0133772 -0.0558727 0.085019

0.544233 0.0235258 -0.00482893
0.0235258 0.305748 -0.0752809
-0.00482893 -0.0752809 0.101064

0.480735 0.042852 -0.0314004
0.042852 0.273502 -0.0843517
-0.0314004 -0.0843517 0.12053

0.424208 0.0530982 -0.0683988
0.0530982 0.234471 -0.0855129
-0.0683988 -0.0855129 0.13694

0.389238 0.0505409 -0.108157
0.0505409 0.174968 -0.0702354
-0.108157 -0.0702354 0.143142

0.363006 0.0284631 -0.130385
0.0284631 0.138563 -0.0532564
-0.130385 -0.0532564 0.170093

0.314076 0.0127009 -0.1517
0.0127009 0.103251 -0.0412972
-0.1517 -0.0412972 0.213977

0.265527 -0.00701858 -0.156957
-0.00701858 0.0858385 -0.0279641
-0.156957 -0.0279641 0.260972

0.226102 -0.0314632 -0.137867
-0.0314632 0.101853 -0.0191957
-0.137867 -0.0191957 0.291703

0.191984 -0.0524199 -0.118516
-0.0524199 0.12051 -0.00630329
-0.118516 -0.00630329 0.301445

0.144438 -0.0824082 -0.0784006
-0.0824082 0.199824 0.016691
-0.0784006 0.016691 0.411427

0.128245 -0.0794954 -0.065963
-0.0794954 0.226768 0.0282494
-0.065963 0.0282494 0.451258

0.10973 -0.0772909 -0.0540262
-0.0772909 0.240175 0.0437213
-0.0540262 0.0437213 0.49073

0.098828 -0.0805831 -0.0366698
-0.0805831 0.2481 0.0670272
-0.0366698 0.0670272 0.54177

0.103659 -0.0891468 -0.00790677
-0.0891468 0.263152 0.0868091
-0.00790677 0.0868091 0.603185

0.12668 -0.0959718 0.0411033
-0.0959718 0.292571 0.0982007
0.0411033 0.0982007 0.670916

0.156592 -0.0945971 0.113213
-0.0945971 0.317305 0.0861062
0.113213 0.0861062 0.689494

0.186597 -0.0928509 0.179863
-0.0928509 0.323776 0.0531715
0.179863 0.0531715 0.628613

0.226899 -0.0997786 0.223462
-0.0997786 0.308512 0.0136149
0.223462 0.0136149 0.531941

0.384322 -0.132766 0.300401
-0.132766 0.232188 -0.0286198
0.300401 -0.0286198 0.438935

0.471227 -0.125244 0.309792
-0.125244 0.201075 -0.00469313
0.309792 -0.00469313 0.413539

0.509779 -0.092034 0.277836
-0.092034 0.17773 0.0233328
0.277836 0.0233328 0.360898

0.477733 -0.0521348 0.230923
-0.0521348 0.146111 0.0380493
0.230923 0.0380493 0.275682

0.458437 -0.0199631 0.19095
-0.0199631 0.14194 0.0448315
0.19095 0.0448315 0.215907

0.445702 0.00821299 0.15459
0.00821299 0.149077 0.0480327
0.15459 0.0480327 0.176436

0.407505 0.0264751 0.110769
0.0264751 0.163833 0.0537308
0.110769 0.0537308 0.144131

0.367085 0.0268268 0.0666185
0.0268268 0.185483 0.0551443
0.0666185 0.0551443 0.120428

0.351011 0.0241769 0.0311506
0.0241769 0.215962 0.0524255
0.0311506 0.0524255 0.112649

0.289871 -0.118715 0.260175
-0.118715 0.271297 -0.0196562
0.260175 -0.0196562 0.466641

0.150989 -0.0723823 -0.0925824
-0.0723823 0.164816 0.0065787
-0.0925824 0.0065787 0.364947

0.15728 -0.0547075 -0.103383
-0.0547075 0.144804 -0.008454
-0.103383 -0.008454 0.330355

0.0845385 -0.00588455 -0.0601502
-0.00588455 0.187383 -0.030244
-0.0601502 -0.030244 0.519587

0.100737 -0.00610215 -0.117646
-0.00610215 0.207588 -0.0410639
-0.117646 -0.0410639 0.526327

0.145348 0.00309598 -0.179965
0.00309598 0.263287 -0.021841
-0.179965 -0.021841 0.545838

0.195703 0.00738579 -0.227816
0.00738579 0.29386 -0.00752375
-0.227816 -0.00752375 0.509173

0.240749 0.0176143 -0.238822
0.0176143 0.310032 0.019014
-0.238822 0.019014 0.454773

0.251163 0.0271117 -0.228873
0.0271117 0.278078 0.0337493
-0.228873 0.0337493 0.377004

0.271376 0.0357838 -0.223212
0.0357838 0.243864 0.0362738
-0.223212 0.0362738 0.339769

0.318891 0.0480761 -0.23329
0.0480761 0.210825 0.0360888
-0.23329 0.0360888 0.318727

0.318938 0.00945467 0.073921
0.00945467 0.192993 0.00784713
0.073921 0.00784713 0.0990962

0.314227 0.0122127 0.114387
0.0122127 0.196 0.0155991
0.114387 0.0155991 0.138028

0.273327 0.005523 0.138047
0.005523 0.234737 0.0321239
0.138047 0.0321239 0.177912

0.245324 -0.00718863 0.15081
-0.00718863 0.268008 0.0424045
0.15081 0.0424045 0.228486

0.223503 -0.0142949 0.161574
-0.0142949 0.278542 0.0479903
0.161574 0.0479903 0.278179

0.204591 -0.0205645 0.168259
-0.0205645 0.284899 0.0478628
0.168259 0.0478628 0.323728

0.192158 -0.0377397 0.171232
-0.0377397 0.286753 0.0376262
0.171232 0.0376262 0.363319

0.192036 -0.0603769 0.173617
-0.0603769 0.305033 0.0176748
0.173617 0.0176748 0.399949

0.202728 -0.0852489 0.175302
-0.0852489 0.33136 -0.0043466
0.175302 -0.0043466 0.426123

0.212409 -0.0925381 0.189556
-0.0925381 0.342432 -0.0079205
0.189556 -0.0079205 0.470634

0.207759 -0.0948001 0.189944
-0.0948001 0.34542 0.0199897
0.189944 0.0199897 0.532297

0.183618 -0.0756367 0.168457
-0.0756367 0.366623 0.0302096
0.168457 0.0302096 0.550887

0.16556 -0.0701959 0.16205
-0.0701959 0.384021 0.0386235
0.16205 0.0386235 0.578

0.145063 -0.0756525 0.133245
-0.0756525 0.396672 0.0389977
0.133245 0.0389977 0.661335

0.110375 -0.0755954 0.0943857
-0.0755954 0.379159 0.0209002
0.0943857 0.0209002 0.67655

0.0872944 -0.0580751 0.0516534
-0.0580751 0.334961 -0.00533563
0.0516534 -0.00533563 0.62454

0.0910218 -0.0398343 0.00879877
-0.0398343 0.309455 -0.0232976
0.00879877 -0.0232976 0.573755

0.088508 -0.0259016 -0.0310386
-0.0259016 0.273236 -0.0290709
-0.0310386 -0.0290709 0.521632

0.0898407 -0.021113 -0.0628966
-0.021113 0.258695 -0.0365896
-0.0628966 -0.0365896 0.476176

0.103557 -0.0181705 -0.0892417
-0.0181705 0.257215 -0.0507083
-0.0892417 -0.0507083 0.441189

0.121686 -0.0105414 -0.11779
-0.0105414 0.231826 -0.050837
-0.11779 -0.050837 0.410618

0.147907 -0.00193181 -0.142935
-0.00193181 0.204987 -0.0407413
-0.142935 -0.0407413 0.376291

0.178421 0.00480594 -0.160338
0.00480594 0.185754 -0.0298841
-0.160338 -0.0298841 0.33521

0.212196 0.00756023 -0.169865
0.00756023 0.168632 -0.0211439
-0.169865 -0.0211439 0.288602

0.25658 0.00658727 -0.171088
0.00658727 0.161084 -0.0148535
-0.171088 -0.0148535 0.249641

0.292077 0.00442469 -0.166441
0.00442469 0.140074 -0.0120011
-0.166441 -0.0120011 0.206403

0.328534 -0.00156537 -0.163155
-0.00156537 0.128706 -0.00899106
-0.163155 -0.00899106 0.183036

0.354101 -0.0056256 -0.14139
-0.0056256 0.15468 -0.0111653
-0.14139 -0.0111653 0.169002

0.360219 -0.00284198 -0.119972
-0.00284198 0.164997 -0.0200411
-0.119972 -0.0200411 0.143138

0.409114 -0.000984894 -0.0987465
-0.000984894 0.15945 -0.0233821
-0.0987465 -0.0233821 0.102096

0.449462 -0.0203794 -0.0865228
-0.0203794 0.207506 -0.018495
-0.0865228 -0.018495 0.105889

0.492065 -0.0347603 -0.0737517
-0.0347603 0.243692 -0.0132306
-0.0737517 -0.0132306 0.0941387

0.530033 -0.0481798 -0.0589124
-0.0481798 0.270094 -0.00704297
-0.0589124 -0.00704297 0.0845562

0.573119 -0.0487003 -0.0410374
-0.0487003 0.293499 -0.00894968
-0.0410374 -0.00894968 0.0810305

0.621708 -0.0393437 -0.0122122
-0.0393437 0.32212 -0.0187079
-0.0122122 -0.0187079 0.0800286

0.678279 -0.0222207 0.0258339
-0.0222207 0.351004 -0.0338782
0.0258339 -0.0338782 0.0817915

0.734398 0.00194002 0.0732879
0.00194002 0.380198 -0.047556
0.0732879 -0.047556 0.091623

0.255078 0.0317005 -0.22356
0.0317005 0.1978 0.0489497
-0.22356 0.0489497 0.353654

0.394628 0.0120358 -0.0726294
0.0120358 0.19752 0.0235253
-0.0726294 0.0235253 0.0962061

0.347824 0.0112371 -0.0536192
0.0112371 0.180779 0.0398702
-0.0536192 0.0398702 0.0800979

0.39473 0.0235147 -0.0225426
0.0235147 0.19417 0.048381
-0.0225426 0.048381 0.107313

0.398324 0.0267439 0.0115633
0.0267439 0.177082 0.052176
0.0115633 0.052176 0.103753

0.498667 0.0432437 -0.0142163
0.0432437 0.159589 0.0438261
-0.0142163 0.0438261 0.111332

0.591612 0.0843772 -0.0344505
0.0843772 0.160792 0.0367331
-0.0344505 0.0367331 0.114691

0.661942 0.12392 -0.0815118
0.12392 0.256689 0.0409364
-0.0815118 0.0409364 0.169707

0.518597 0.0805961 -0.186524
0.0805961 0.209363 0.029319
-0.186524 0.029319 0.177965

0.472107 0.0632743 -0.220563
0.0632743 0.186797 0.0245992
-0.220563 0.0245992 0.211548

0.400046 0.063142 -0.232963
0.063142 0.187104 0.0250092
-0.232963 0.0250092 0.246401

0.765524 0.0249792 0.12352
0.0249792 0.409295 -0.0547071
0.12352 -0.0547071 0.104099

0.775822 0.0481257 0.175543
0.0481257 0.445061 -0.0547109
0.175543 -0.0547109 0.126255

0.756284 0.0672065 0.215985
0.0672065 0.480014 -0.0493421
0.215985 -0.0493421 0.15687

0.692468 0.074431 0.246013
0.074431 0.480432 -0.0420232
0.246013 -0.0420232 0.177108

0.676374 0.0803932 0.256825
0.0803932 0.467283 -0.060162
0.256825 -0.060162 0.208826

0.426792 0.0623578 0.299896
0.0623578 0.307871 0.00309358
0.299896 0.00309358 0.339729

0.310269 0.0426476 0.258297
0.0426476 0.295692 0.00701772
0.258297 0.00701772 0.370126

0.22445 0.0291604 0.210719
0.0291604 0.283589 0.0139656
0.210719 0.0139656 0.382417

0.16933 0.0204713 0.16708
0.0204713 0.276388 0.0229721
0.16708 0.0229721 0.381968

0.250172 0.0277052 -0.220057
0.0277052 0.237881 0.05367
-0.220057 0.05367 0.394612

0.37935 0.068056 -0.194158
0.068056 0.180286 0.00804105
-0.194158 0.00804105 0.173823

0.165289 0.0378423 0.156678
0.0378423 0.283919 0.0115877
0.156678 0.0115877 0.391671

0.160936 0.0486888 0.145328
0.0486888 0.26835 0.000133968
0.145328 0.000133968 0.400853

0.129519 0.0378376 0.110833
0.0378376 0.25224 0.00779557
0.110833 0.00779557 0.398181

0.0993927 0.0244971 0.0763252
0.0244971 0.219239 0.01437
0.0763252 0.01437 0.408662

0.0902596 -0.00187666 -0.0496724
-0.00187666 0.166935 -0.00445766
-0.0496724 -0.00445766 0.488524

0.100971 0.00187373 -0.10469
0.00187373 0.194026 -0.00194557
-0.10469 -0.00194557 0.495069

0.12906 0.0136904 -0.155239
0.0136904 0.239355 0.00976403
-0.155239 0.00976403 0.507305

0.16942 0.0177149 -0.199676
0.0177149 0.271118 0.025133
-0.199676 0.025133 0.498546

0.234488 0.0254255 -0.21794
0.0254255 0.282667 0.0466131
-0.21794 0.0466131 0.427588

0.204182 0.0198691 -0.217223
0.0198691 0.284856 0.0381814
-0.217223 0.0381814 0.463426

0.386268 0.094361 -0.153451
0.094361 0.208019 0.00594359
-0.153451 0.00594359 0.130377

0.388821 0.115248 -0.119944
0.115248 0.250628 0.0160117
-0.119944 0.0160117 0.110454

0.384321 0.102178 -0.108681
0.102178 0.280788 0.028065
-0.108681 0.028065 0.123237

0.30518 0.0185327 0.0427767
0.0185327 0.228117 0.0460996
0.0427767 0.0460996 0.104165

0.306427 0.0153973 0.0546961
0.0153973 0.213339 0.0253033
0.0546961 0.0253033 0.0994765

0.183093 -0.0897 0.167842
-0.0897 0.358168 0.0514389
0.167842 0.0514389 0.630512

0.157676 -0.0850971 0.130196
-0.0850971 0.382553 0.0644874
0.130196 0.0644874 0.687434

0.126923 -0.0884553 0.0858747
-0.0884553 0.362531 0.0580598
0.0858747 0.0580598 0.675851

0.100575 -0.0746809 0.0452234
-0.0746809 0.330429 0.0379522
0.0452234 0.0379522 0.59709

0.0869711 -0.0572011 0.00823252
-0.0572011 0.30321 0.014932
0.00823252 0.014932 0.523901

0.0819639 -0.0434444 -0.0232842
-0.0434444 0.269097 -0.00652844
-0.0232842 -0.00652844 0.477333

0.0983183 -0.0404872 -0.045228
-0.0404872 0.264991 -0.035187
-0.045228 -0.035187 0.456702

0.112822 -0.0416675 -0.0681498
-0.0416675 0.2541 -0.0426126
-0.0681498 -0.0426126 0.428981

0.124265 -0.0323905 -0.0975742
-0.0323905 0.220111 -0.0427787
-0.0975742 -0.0427787 0.39965

0.146645 -0.0180785 -0.126317
-0.0180785 0.18971 -0.0378207
-0.126317 -0.0378207 0.368941

0.173665 -0.00792507 -0.145747
-0.00792507 0.171324 -0.0305947
-0.145747 -0.0305947 0.331527

0.202124 -0.0022918 -0.157821
-0.0022918 0.155293 -0.0231687
-0.157821 -0.0231687 0.291746

0.3008 0.00641754 -0.150625
0.00641754 0.115123 -0.0183881
-0.150625 -0.0183881 0.162419

0.452305 -0.0102755 -0.0605455
-0.0102755 0.231641 -0.0383496
-0.0605455 -0.0383496 0.0957767

0.498787 -0.0223048 -0.0495127
-0.0223048 0.257688 -0.0309117
-0.0495127 -0.0309117 0.0843174

0.545928 -0.0352919 -0.0399306
-0.0352919 0.278964 -0.0211059
-0.0399306 -0.0211059 0.0822587

0.571076 -0.0203977 -0.015994
-0.0203977 0.299117 -0.0370777
-0.015994 -0.0370777 0.0803433

0.31068 0.00830392 0.0985603
0.00830392 0.194539 0.0311817
0.0985603 0.0311817 0.137298

0.280439 -0.0139112 0.125878
-0.0139112 0.210555 0.0402635
0.125878 0.0402635 0.17425

0.268726 -0.0401521 0.138719
-0.0401521 0.243054 0.0434971
0.138719 0.0434971 0.224084

0.255624 -0.0493508 0.15562
-0.0493508 0.253718 0.0462158
0.15562 0.0462158 0.272949

0.244616 -0.0547166 0.171316
-0.0547166 0.262507 0.0440251
0.171316 0.0440251 0.324904

0.234697 -0.0645559 0.185455
-0.0645559 0.262096 0.0286547
0.185455 0.0286547 0.368675

0.228503 -0.0834809 0.199703
-0.0834809 0.257752 -0.000303643
0.199703 -0.000303643 0.396344

0.233357 -0.0996782 0.200624
-0.0996782 0.289211 -0.0189022
0.200624 -0.0189022 0.41698

0.260349 -0.113925 0.224924
-0.113925 0.298738 -0.0268003
0.224924 -0.0268003 0.448441

0.512903 -0.00287824 -0.0267856
-0.00287824 0.276699 -0.0515121
-0.0267856 -0.0515121 0.086193

0.316952 -0.121494 0.255338
-0.121494 0.245663 -0.0265363
0.255338 -0.0265363 0.42404

0.369275 -0.114884 0.257858
-0.114884 0.210305 -0.00143635
0.257858 -0.00143635 0.394388

0.400387 -0.0954462 0.236129
-0.0954462 0.190964 0.0232357
0.236129 0.0232357 0.350655

0.390559 -0.0668088 0.200647
-0.0668088 0.170933 0.0394971
0.200647 0.0394971 0.284912

0.383485 -0.0407402 0.170066
-0.0407402 0.15917 0.044034
0.170066 0.044034 0.223695

0.383359 -0.0115786 0.142449
-0.0115786 0.158031 0.0462856
0.142449 0.0462856 0.180418

0.360779 0.0144212 0.113262
0.0144212 0.16214 0.0519516
0.113262 0.0519516 0.144209

0.333424 0.0212623 0.0756468
0.0212623 0.19816 0.051901
0.0756468 0.051901 0.126226

0.458503 0.0146238 -0.0406714
0.0146238 0.258059 -0.0640755
-0.0406714 -0.0640755 0.103281

0.0922467 0.00882915 -0.0683642
0.00882915 0.178281 0.0567224
-0.0683642 0.0567224 0.415487

0.093472 0.0240226 0.0634096
0.0240226 0.194756 -0.00350748
0.0634096 -0.00350748 0.41924

0.123442 0.0374392 0.100549
0.0374392 0.225341 -0.00748074
0.100549 -0.00748074 0.423207

0.409169 0.0300722 -0.063174
0.0300722 0.224955 -0.0668776
-0.063174 -0.0668776 0.123961

0.15327 0.0503495 0.133706
0.0503495 0.24265 -0.00663792
0.133706 -0.00663792 0.42663

0.362358 0.0442763 -0.0962747
0.0442763 0.168902 -0.0624764
-0.0962747 -0.0624764 0.124916

0.342355 0.0204626 -0.105366
0.0204626 0.150515 -0.0478934
-0.105366 -0.0478934 0.133965

0.249962 -0.0103192 -0.137169
-0.0103192 0.107827 -0.0282718
-0.137169 -0.0282718 0.226687

0.206995 -0.0240516 -0.126222
-0.0240516 0.115556 -0.024867
-0.126222 -0.024867 0.253554

0.175287 -0.0376413 -0.119252
-0.0376413 0.120027 -0.0172645
-0.119252 -0.0172645 0.268259

0.165227 -0.0356066 -0.114498
-0.0356066 0.142223 -0.0212093
-0.114498 -0.0212093 0.300269

0.161639 -0.0230867 -0.125895
-0.0230867 0.157364 -0.0301093
-0.125895 -0.0301093 0.314539

0.141269 -0.0336341 -0.108498
-0.0336341 0.170257 -0.0289588
-0.108498 -0.0289588 0.350561

0.128286 -0.049743 -0.0815619
-0.049743 0.197952 -0.0242502
-0.0815619 -0.0242502 0.388779

0.122957 -0.0606154 -0.0596081
-0.0606154 0.229842 -0.0168269
-0.0596081 -0.0168269 0.424158

0.108643 -0.059703 -0.0431941
-0.059703 0.249734 -0.00719255
-0.0431941 -0.00719255 0.452792

0.0935366 -0.0604485 -0.0295076
-0.0604485 0.258503 0.0183305
-0.0295076 0.0183305 0.482994

0.0915619 -0.0691144 -0.0106903
-0.0691144 0.277848 0.0487192
-0.0106903 0.0487192 0.531749

0.183858 0.0605544 0.168079
0.0605544 0.252238 -0.00328419
0.168079 -0.00328419 0.424974

0.237714 0.0694571 0.213926
0.0694571 0.267258 -0.0025415
0.213926 -0.0025415 0.423284

0.32252 0.0789767 0.267864
0.0789767 0.270933 -0.0142578
0.267864 -0.0142578 0.423228

0.429553 0.0783844 0.319498
0.0783844 0.281416 -0.0388679
0.319498 -0.0388679 0.416084

0.570213 0.0687819 0.357334
0.0687819 0.313236 -0.0693971
0.357334 -0.0693971 0.402196

0.663207 0.0510772 0.353739
0.0510772 0.359397 -0.101352
0.353739 -0.101352 0.354739

0.696402 0.0550063 0.309302
0.0550063 0.401196 -0.123987
0.309302 -0.123987 0.304823

0.733624 0.070288 0.263126
0.070288 0.432814 -0.130266
0.263126 -0.130266 0.264258

0.757717 0.0819689 0.227978
0.0819689 0.448112 -0.124464
0.227978 -0.124464 0.22885

0.768038 0.0840647 0.191047
0.0840647 0.43571 -0.118068
0.191047 -0.118068 0.195387

0.106247 -0.0825732 0.020495
-0.0825732 0.302387 0.0738357
0.020495 0.0738357 0.605262

0.135561 -0.0943008 0.0652495
-0.0943008 0.336579 0.0895407
0.0652495 0.0895407 0.685933

0.429084 0.0627941 0.307373
0.0627941 0.310892 -0.0290383
0.307373 -0.0290383 0.375303

0.313858 0.0599662 0.259588
0.0599662 0.299089 -0.00661046
0.259588 -0.00661046 0.391234

0.225606 0.0504936 0.206134
0.0504936 0.291391 0.00293937
0.206134 0.00293937 0.398747

0.755959 0.067516 0.20475
0.067516 0.461085 -0.0929507
0.20475 -0.0929507 0.170627

0.747627 0.0778325 0.239183
0.0778325 0.48131 -0.0947559
0.239183 -0.0947559 0.211

0.725499 0.0761542 0.258967
0.0761542 0.472863 -0.101904
0.258967 -0.101904 0.238306

0.322128 0.00798693 0.0998845
0.00798693 0.176408 0.0487888
0.0998845 0.0487888 0.13853

0.320001 -0.020623 0.128459
-0.020623 0.178828 0.0457722
0.128459 0.0457722 0.176733

0.36056 0.0268281 -0.0928139
0.0268281 0.146934 -0.0450256
-0.0928139 -0.0450256 0.104802

0.241551 -0.0140541 -0.132927
-0.0140541 0.129577 -0.0213721
-0.132927 -0.0213721 0.209605

0.203918 -0.0181605 -0.131321
-0.0181605 0.127886 -0.0236636
-0.131321 -0.0236636 0.240585

0.177665 -0.0238966 -0.127126
-0.0238966 0.12818 -0.0233007
-0.127126 -0.0233007 0.270423

0.18401 -0.0140387 -0.139693
-0.0140387 0.142218 -0.0249455
-0.139693 -0.0249455 0.279312

0.315319 -0.0499176 0.148283
-0.0499176 0.19619 0.0447682
0.148283 0.0447682 0.223209

0.310802 -0.0666605 0.172212
-0.0666605 0.208237 0.0436205
0.172212 0.0436205 0.27744

0.306193 -0.0834018 0.198273
-0.0834018 0.216173 0.0308718
0.198273 0.0308718 0.329912

0.292818 -0.0921893 0.215647
-0.0921893 0.232859 0.0137631
0.215647 0.0137631 0.381202

0.264874 -0.0970046 0.224358
-0.0970046 0.24597 -0.0100206
0.224358 -0.0100206 0.41121

0.427855 -0.116351 -0.351685
-0.116351 0.145119 0.106588
-0.351685 0.106588 0.592485

0.300706 -0.0988275 -0.27861
-0.0988275 0.133491 0.118464
-0.27861 0.118464 0.585184

0.217692 -0.0876645 -0.216902
-0.0876645 0.134939 0.11954
-0.216902 0.11954 0.589891

0.370727 -0.0587731 -0.372003
-0.0587731 0.12712 0.0600271
-0.372003 0.0600271 0.619403

0.241517 -0.0590877 -0.297918
-0.0590877 0.106691 0.0830789
-0.297918 0.0830789 0.634897

0.164977 -0.0628031 -0.217857
-0.0628031 0.118682 0.114811
-0.217857 0.114811 0.682437

0.430993 -0.0246751 -0.0293368
-0.0246751 0.203492 -0.0289845
-0.0293368 -0.0289845 0.0856327

0.406492 -0.0202663 -0.00554742
-0.0202663 0.204172 -0.0298009
-0.00554742 -0.0298009 0.0861973

0.40488 -0.024157 -0.0329835
-0.024157 0.196243 -0.0192954
-0.0329835 -0.0192954 0.0783292

0.070752 0.0146496 -0.0212912
0.0146496 0.169802 0.0441224
-0.0212912 0.0441224 0.419753

0.0614813 0.0137323 0.0111072
0.0137323 0.153242 0.00803083
0.0111072 0.00803083 0.442855

0.0712555 0.010325 0.0227516
0.010325 0.157126 0.0161618
0.0227516 0.0161618 0.426183

0.0802528 0.00305526 -0.027904
0.00305526 0.161797 0.0379423
-0.027904 0.0379423 0.42221

0.0949638 0.00234815 -0.0347614
0.00234815 0.156862 0.0245049
-0.0347614 0.0245049 0.475165

0.0828023 0.010069 0.0279396
0.010069 0.168685 0.0232754
0.0279396 0.0232754 0.450343

0.758418 0.104125 0.123609
0.104125 0.374785 -0.126966
0.123609 -0.126966 0.179527

0.685662 0.0627859 0.285422
0.0627859 0.439873 -0.0955634
0.285422 -0.0955634 0.257046

0.402724 0.00655371 -0.0726839
0.00655371 0.196178 -0.0417748
-0.0726839 -0.0417748 0.109249

0.363419 0.0112414 -0.101586
0.0112414 0.162815 -0.0318564
-0.101586 -0.0318564 0.125007

0.669634 0.114256 -0.045084
0.114256 0.185219 0.0379046
-0.045084 0.0379046 0.11349

0.302638 0.0115993 -0.169207
0.0115993 0.10328 -0.0172033
-0.169207 -0.0172033 0.18096

0.28322 0.00356627 -0.15925
0.00356627 0.146095 -0.01396
-0.15925 -0.01396 0.225985

0.235384 -0.000678804 -0.162581
-0.000678804 0.145577 -0.016192
-0.162581 -0.016192 0.252392

0.215752 -0.00906323 -0.14745
-0.00906323 0.137118 -0.0201706
-0.14745 -0.0201706 0.247188

0.406783 0.0704115 -0.113683
0.0704115 0.267348 0.0255013
-0.113683 0.0255013 0.142567

0.343449 0.0164988 -0.0986834
0.0164988 0.197678 0.0303815
-0.0986834 0.0303815 0.091274

0.165784 -0.0924737 0.123109
-0.0924737 0.36305 0.0822545
0.123109 0.0822545 0.704036

0.173983 -0.0825155 0.159997
-0.0825155 0.373935 0.0531633
0.159997 0.0531633 0.613954

0.271984 0.000315955 -0.1394
0.000315955 0.113688 -0.0222545
-0.1394 -0.0222545 0.173459

0.309908 0.00727367 -0.130994
0.00727367 0.142417 -0.0277906
-0.130994 -0.0277906 0.160263

0.317909 0.0104247 -0.11235
0.0104247 0.152688 -0.0421048
-0.11235 -0.0421048 0.151547

0.293329 0.00164087 -0.137527
0.00164087 0.118305 -0.0314281
-0.137527 -0.0314281 0.189283

0.255335 -0.00333498 -0.144408
-0.00333498 0.1425 -0.0181509
-0.144408 -0.0181509 0.21944

0.282364 0.00138487 -0.152718
0.00138487 0.111352 -0.0138659
-0.152718 -0.0138659 0.17922

0.441274 0.0484744 -0.08422
0.0484744 0.19774 0.0351092
-0.08422 0.0351092 0.129348

0.431541 0.0482963 -0.0521746
0.0482963 0.163415 0.0466132
-0.0521746 0.0466132 0.100442

0.565319 0.0881506 -0.0712838
0.0881506 0.201687 0.0402483
-0.0712838 0.0402483 0.141912

0.439163 0.0915627 -0.0959679
0.0915627 0.217227 0.0392167
-0.0959679 0.0392167 0.123244

0.569954 0.120667 -0.137449
0.120667 0.277215 0.0398657
-0.137449 0.0398657 0.182353

0.539537 0.136191 -0.10235
0.136191 0.28001 0.0452762
-0.10235 0.0452762 0.166248

0.559372 0.0607552 0.329385
0.0607552 0.33858 -0.0533926
0.329385 -0.0533926 0.344157

0.551748 0.0704866 0.312868
0.0704866 0.349563 -0.013089
0.312868 -0.013089 0.30513

0.523438 0.0813926 0.298484
0.0813926 0.349103 0.0306477
0.298484 0.0306477 0.281058

0.649559 0.0616905 0.315786
0.0616905 0.388678 -0.0706962
0.315786 -0.0706962 0.288007

0.619213 0.0828859 0.288846
0.0828859 0.408135 -0.0233787
0.288846 -0.0233787 0.227908

0.605346 0.092799 0.280261
0.092799 0.417133 0.024844
0.280261 0.024844 0.221666

0.757758 0.0601515 0.160992
0.0601515 0.428075 -0.0890725
0.160992 -0.0890725 0.141172

0.672621 0.0335351 0.0537063
0.0335351 0.357568 -0.0753475
0.0537063 -0.0753475 0.0998135

0.73059 0.0504251 0.106033
0.0504251 0.393266 -0.085848
0.106033 -0.085848 0.120466

